 vasp.6.2.1 16May21 (build Sep 27 2021 21:11:04) gamma-only

 executed on             LinuxIFC date 2023.05.04  08:03:20

 INCAR:
   GGA = PE
   ISTART = 0
   ISPIN = 2
   ENCUT = 370
   ENAUG = 740
   EDIFF = 1E-5
   IBRION = 2
   POTIM = 0.2
   NSW = 0
   EDIFFG = -1E-2
   ISMEAR = 0
   SIGMA = 0.01
   ISIF = 1
   LREAL = .FALSE.
   ISYM = 0
   PREC = Accurate
   NCORE = 8
   NELM = 60
   NWRITE = 2
   SYMPREC = 1.0e-8

 POTCAR:    PAW_PBE C 08Apr2002
|           W    W    AA    RRRRR   N    N  II  N    N   GGGG   !!!           |
|           W    W   A  A   R    R  NN   N  II  NN   N  G    G  !!!           |
|           W    W  A    A  R    R  N N  N  II  N N  N  G       !!!           |
|           W WW W  AAAAAA  RRRRR   N  N N  II  N  N N  G  GGG   !            |
|           WW  WW  A    A  R   R   N   NN  II  N   NN  G    G                |
|           W    W  A    A  R    R  N    N  II  N    N   GGGG   !!!           |
|     You use a magnetic or noncollinear calculation, but did not specify     |
|     the initial magnetic moment with the MAGMOM tag. Note that a            |
|     default of 1 will be used for all atoms. This ferromagnetic setup       |
|     may break the symmetry of the crystal, in particular it may rule        |
|     out finding an antiferromagnetic solution. Thence, we recommend         |
|     setting the initial magnetic moment manually or verifying carefully     |
|     that this magnetic setup is desired.                                    |

   TITEL  = PAW_PBE C 08Apr2002
   POMASS =   12.011; ZVAL   =    4.000    mass and valenz
   ENMAX  =  400.000; ENMIN  =  300.000 eV

  PAW_PBE C 08Apr2002                   :

 POSCAR: 3D\Atomistic
  positions in direct lattice
  velocities in cartesian coordinates
 exchange correlation table for  LEXCH =        8
   RHO(1)=    0.500       N(1)  =     2000
   RHO(2)=  100.500       N(2)  =     4000

 ion  position               nearest neighbor table
   1  0.000  0.000  0.000-  72 1.53 165 1.53 199 1.53   6 1.53
   2  0.000  0.167  0.167-   7 1.53  21 1.54  24 1.54   6 1.54
   3  0.167  0.000  0.167-   5 1.53  55 1.54  56 1.54   6 1.54
   4  0.167  0.167  0.000-   8 1.53 149 1.54 151 1.54   6 1.54
   5  0.250  0.083  0.250-   3 1.53  81 1.53  76 1.54  10 1.54
   6  0.083  0.083  0.083-   1 1.53   2 1.54   3 1.54   4 1.54
   7  0.083  0.250  0.250-   2 1.53  97 1.53  76 1.54  27 1.54
   8  0.250  0.250  0.083-   4 1.53  33 1.53  27 1.54  10 1.54
   9  0.333  0.000  0.000-  56 1.53 149 1.53 207 1.54  14 1.54
  10  0.333  0.167  0.167-  15 1.54   5 1.54   8 1.54  14 1.54
  11  0.500  0.000  0.167-  13 1.53  63 1.53  64 1.54  14 1.54
  12  0.500  0.167  0.000-  16 1.53 159 1.53 157 1.54  14 1.54
  13  0.583  0.083  0.250-  11 1.53  84 1.54  89 1.54  18 1.54
  14  0.417  0.083  0.083-   9 1.54  11 1.54  12 1.54  10 1.54
  15  0.417  0.250  0.250-  35 1.53  84 1.53  10 1.54 105 1.54
  16  0.583  0.250  0.083-  12 1.53  35 1.54  41 1.54  18 1.54
  17  0.667  0.000  0.000- 215 1.53  22 1.53 157 1.54  64 1.54
  18  0.667  0.167  0.167-  23 1.53  22 1.54  13 1.54  16 1.54
  19  0.833  0.000  0.167-  71 1.53  22 1.54  21 1.54  72 1.54
  20  0.833  0.167  0.000- 167 1.53  22 1.54  24 1.54 165 1.54
  21  0.917  0.083  0.250-  73 1.53   2 1.54  19 1.54  92 1.54
  22  0.750  0.083  0.083-  17 1.53  19 1.54  20 1.54  18 1.54
  23  0.750  0.250  0.250-  18 1.53  43 1.53  92 1.53 113 1.53
  24  0.917  0.250  0.083-  25 1.53   2 1.54  20 1.54  43 1.54
  25  0.000  0.333  0.000-  24 1.53 151 1.53 189 1.54  30 1.54
  26  0.000  0.500  0.167-  31 1.53  45 1.53  48 1.54  30 1.54
  27  0.167  0.333  0.167-  29 1.54   7 1.54   8 1.54  30 1.54
  28  0.167  0.500  0.000-  32 1.53 173 1.53 175 1.54  30 1.54
  29  0.250  0.417  0.250-  34 1.53 100 1.53  27 1.54 105 1.54
  30  0.083  0.417  0.083-  25 1.54  26 1.54  28 1.54  27 1.54
  31  0.083  0.583  0.250-  26 1.53 100 1.54 121 1.54  51 1.54
  32  0.250  0.583  0.083-  28 1.53  34 1.54  57 1.54  51 1.54
  33  0.333  0.333  0.000-   8 1.53 159 1.54 173 1.54  38 1.54
  34  0.333  0.500  0.167-  29 1.53  39 1.54  32 1.54  38 1.54
  35  0.500  0.333  0.167-  15 1.53  37 1.54  16 1.54  38 1.54
  36  0.500  0.500  0.000-  40 1.53 181 1.53 183 1.53  38 1.53
  37  0.583  0.417  0.250- 108 1.53  35 1.54  42 1.54 113 1.54
  38  0.417  0.417  0.083-  36 1.53  33 1.54  35 1.54  34 1.54
  39  0.417  0.583  0.250- 108 1.53  34 1.54  59 1.54 129 1.54
  40  0.583  0.583  0.083-  36 1.53  42 1.54  59 1.54  65 1.54
  41  0.667  0.333  0.000- 167 1.53  46 1.54  16 1.54 181 1.54
  42  0.667  0.500  0.167-  47 1.53  46 1.54  37 1.54  40 1.54
  43  0.833  0.333  0.167-  23 1.53  46 1.54  45 1.54  24 1.54
  44  0.833  0.500  0.000- 191 1.53  46 1.53  48 1.54 189 1.54
  45  0.917  0.417  0.250-  26 1.53  97 1.54 116 1.54  43 1.54
  46  0.750  0.417  0.083-  44 1.53  41 1.54  42 1.54  43 1.54
  47  0.750  0.583  0.250-  42 1.53 116 1.53  67 1.54 137 1.54
  48  0.917  0.583  0.083-  26 1.54  44 1.54  49 1.54  67 1.54
  49  0.000  0.667  0.000- 213 1.53  54 1.53 175 1.54  48 1.54
  50  0.000  0.833  0.167-  69 1.53  54 1.54  55 1.54  72 1.54
  51  0.167  0.667  0.167-  53 1.53  54 1.54  31 1.54  32 1.54
  52  0.167  0.833  0.000- 197 1.53  54 1.54  56 1.54 199 1.54
  53  0.250  0.750  0.250-  51 1.53  58 1.53 124 1.53 129 1.53
  54  0.083  0.750  0.083-  49 1.53  50 1.54  52 1.54  51 1.54
  55  0.083  0.917  0.250-  73 1.53   3 1.54  50 1.54 124 1.54
  56  0.250  0.917  0.083-   9 1.53   3 1.54  52 1.54  58 1.54
  57  0.333  0.667  0.000- 197 1.53  62 1.54  32 1.54 183 1.54
  58  0.333  0.833  0.167-  53 1.53  62 1.54  63 1.54  56 1.54
  59  0.500  0.667  0.167-  61 1.53  62 1.54  39 1.54  40 1.54
  60  0.500  0.833  0.000- 205 1.53  62 1.53  64 1.54 207 1.54
[...]
 202  0.333  0.833  0.833- 206 1.54 197 1.54 200 1.54 207 1.54
 203  0.500  0.667  0.833- 206 1.53 205 1.54 184 1.54 183 1.54
 204  0.500  0.833  0.667- 206 1.53 133 1.54 208 1.54 135 1.54
 205  0.583  0.750  0.917-  60 1.53  65 1.54 203 1.54 210 1.54
 206  0.417  0.750  0.750- 203 1.53 204 1.53 201 1.54 202 1.54
 207  0.417  0.917  0.917-   9 1.54 155 1.54  60 1.54 202 1.54
 208  0.583  0.917  0.750- 155 1.53 161 1.54 204 1.54 210 1.54
 209  0.667  0.667  0.667- 214 1.53 133 1.54 184 1.54 119 1.54
 210  0.667  0.833  0.833- 214 1.53 208 1.54 205 1.54 215 1.54
 211  0.833  0.667  0.833- 214 1.53 192 1.54 213 1.54 191 1.54
 212  0.833  0.833  0.667- 214 1.53 143 1.54 141 1.54 216 1.54
 213  0.917  0.750  0.917-  49 1.53  68 1.54 194 1.54 211 1.54
 214  0.750  0.750  0.750- 209 1.53 210 1.53 211 1.53 212 1.53
 215  0.750  0.917  0.917-  17 1.53  68 1.54 163 1.54 210 1.54
 216  0.917  0.917  0.750- 145 1.53 163 1.54 194 1.54 212 1.54

IMPORTANT INFORMATION: All symmetrisations will be switched off!
NOSYMM: (Re-)initialisation of all symmetry stuff for point group C_1.

                                     Primitive cell

  volume of cell :    1202.8529

  direct lattice vectors                    reciprocal lattice vectors
    10.635000229  0.000000000  0.000000000     0.094029147  0.000000000  0.000000000
     0.000000000 10.635000229  0.000000000     0.000000000  0.094029147  0.000000000
     0.000000000  0.000000000 10.635000229     0.000000000  0.000000000  0.094029147

  length of vectors
    10.635000229 10.635000229 10.635000229     0.094029147  0.094029147  0.094029147

  position of ions in fractional coordinates (direct lattice)
     0.000000000  0.000000000  0.000000000
     0.000000000  0.166669995  0.166669995
     0.166669995  0.000000000  0.166669995
     0.166669995  0.166669995  0.000000000
     0.250000000  0.083329998  0.250000000
     0.083329998  0.083329998  0.083329998
     0.083329998  0.250000000  0.250000000
     0.250000000  0.250000000  0.083329998
     0.333330005  0.000000000  0.000000000
     0.333330005  0.166669995  0.166669995
     0.500000000  0.000000000  0.166669995
     0.500000000  0.166669995  0.000000000
     0.583329976  0.083329998  0.250000000
     0.416669995  0.083329998  0.083329998
     0.416669995  0.250000000  0.250000000
     0.583329976  0.250000000  0.083329998
     0.666670024  0.000000000  0.000000000
     0.666670024  0.166669995  0.166669995
     0.833329976  0.000000000  0.166669995
     0.833329976  0.166669995  0.000000000
     0.916670024  0.083329998  0.250000000
     0.750000000  0.083329998  0.083329998
     0.750000000  0.250000000  0.250000000
     0.916670024  0.250000000  0.083329998
     0.000000000  0.333330005  0.000000000
     0.000000000  0.500000000  0.166669995
     0.166669995  0.333330005  0.166669995
     0.166669995  0.500000000  0.000000000
     0.250000000  0.416669995  0.250000000
     0.083329998  0.416669995  0.083329998
     0.083329998  0.583329976  0.250000000
     0.250000000  0.583329976  0.083329998
     0.333330005  0.333330005  0.000000000
     0.333330005  0.500000000  0.166669995
     0.500000000  0.333330005  0.166669995
     0.500000000  0.500000000  0.000000000
     0.583329976  0.416669995  0.250000000
     0.416669995  0.416669995  0.083329998
     0.416669995  0.583329976  0.250000000
     0.583329976  0.583329976  0.083329998
     0.666670024  0.333330005  0.000000000
     0.666670024  0.500000000  0.166669995
     0.833329976  0.333330005  0.166669995
     0.833329976  0.500000000  0.000000000
     0.916670024  0.416669995  0.250000000
     0.750000000  0.416669995  0.083329998
     0.750000000  0.583329976  0.250000000
     0.916670024  0.583329976  0.083329998
     0.000000000  0.666670024  0.000000000
     0.000000000  0.833329976  0.166669995
     0.166669995  0.666670024  0.166669995
     0.166669995  0.833329976  0.000000000
     0.250000000  0.750000000  0.250000000
     0.083329998  0.750000000  0.083329998
     0.083329998  0.916670024  0.250000000
     0.250000000  0.916670024  0.083329998
     0.333330005  0.666670024  0.000000000
     0.333330005  0.833329976  0.166669995
     0.500000000  0.666670024  0.166669995
     0.500000000  0.833329976  0.000000000
[...]
     0.333330005  0.833329976  0.833329976
     0.500000000  0.666670024  0.833329976
     0.500000000  0.833329976  0.666670024
     0.583329976  0.750000000  0.916670024
     0.416669995  0.750000000  0.750000000
     0.416669995  0.916670024  0.916670024
     0.583329976  0.916670024  0.750000000
     0.666670024  0.666670024  0.666670024
     0.666670024  0.833329976  0.833329976
     0.833329976  0.666670024  0.833329976
     0.833329976  0.833329976  0.666670024
     0.916670024  0.750000000  0.916670024
     0.750000000  0.750000000  0.750000000
     0.750000000  0.916670024  0.916670024
     0.916670024  0.916670024  0.750000000

  ion indices of the primitive-cell ions
   primitive index   ion index
                 1           1
                 2           2
                 3           3
                 4           4
                 5           5
                 6           6
                 7           7
                 8           8
                 9           9
                10          10
                11          11
                12          12
                13          13
                14          14
                15          15
[...]
     0.000000000  0.000000000 10.635000229     0.000000000  0.000000000  0.094029147

  length of vectors
    10.635000229 10.635000229 10.635000229     0.094029147  0.094029147  0.094029147

 FORCES acting on ions
    electron-ion (+dipol)            ewald-force                    non-local-force                 convergence-correction
   0.162E-04 0.229E-05 0.291E-04   -.169E-04 -.169E-04 -.169E-04   0.387E-06 0.109E-05 -.381E-06   0.584E-05 0.153E-04 -.138E-04
   -.126E-05 0.545E-02 0.545E-02   -.182E-04 -.704E-02 -.704E-02   -.741E-05 -.126E-02 -.125E-02   0.229E-04 -.336E-05 -.960E-05
   0.546E-02 0.849E-05 0.545E-02   -.704E-02 -.182E-04 -.704E-02   -.126E-02 -.836E-05 -.126E-02   -.121E-04 0.135E-04 -.850E-06
   0.547E-02 0.546E-02 0.144E-04   -.704E-02 -.704E-02 -.182E-04   -.125E-02 -.126E-02 -.110E-04   -.259E-04 -.735E-05 0.103E-04
   0.739E-05 -.549E-02 0.554E-05   -.167E-05 0.706E-02 -.167E-05   -.732E-06 0.123E-02 -.525E-06   -.387E-05 0.301E-04 -.396E-05
   -.545E-02 -.548E-02 -.545E-02   0.706E-02 0.706E-02 0.706E-02   0.125E-02 0.124E-02 0.125E-02   -.360E-05 0.335E-04 -.428E-05
   -.547E-02 0.336E-04 0.607E-05   0.706E-02 -.167E-05 -.167E-05   0.124E-02 0.144E-05 0.106E-05   -.213E-05 -.314E-04 -.553E-05
   0.573E-06 -.323E-05 -.547E-02   -.167E-05 -.167E-05 0.706E-02   -.276E-05 0.123E-05 0.124E-02   0.434E-05 0.239E-05 0.265E-05
   -.545E-02 0.405E-04 0.939E-05   0.704E-02 -.169E-04 -.169E-04   0.123E-02 0.428E-05 -.148E-05   0.206E-05 -.248E-04 0.129E-04
   -.544E-02 0.545E-02 0.543E-02   0.704E-02 -.704E-02 -.704E-02   0.125E-02 -.125E-02 -.126E-02   0.345E-05 -.343E-05 0.148E-04
   -.129E-04 0.272E-04 0.543E-02   0.169E-04 -.169E-04 -.704E-02   -.255E-05 0.239E-05 -.124E-02   -.209E-05 -.643E-05 0.213E-04
   -.302E-04 0.543E-02 0.180E-04   0.169E-04 -.704E-02 -.169E-04   -.611E-05 -.123E-02 0.451E-05   0.124E-04 0.219E-04 -.757E-06
   -.547E-02 -.545E-02 -.103E-04   0.711E-02 0.706E-02 -.341E-06   0.127E-02 0.126E-02 0.941E-05   -.314E-04 -.994E-05 0.103E-04
   0.544E-02 -.545E-02 -.547E-02   -.704E-02 0.706E-02 0.706E-02   -.126E-02 0.125E-02 0.126E-02   0.150E-05 0.194E-05 0.222E-04
   0.544E-02 0.157E-04 -.183E-05   -.704E-02 -.167E-05 -.167E-05   -.123E-02 0.276E-05 -.102E-05   0.918E-05 -.181E-04 0.423E-05
   -.547E-02 -.188E-05 -.546E-02   0.711E-02 -.341E-06 0.706E-02   0.126E-02 0.776E-05 0.126E-02   -.258E-04 0.438E-05 -.111E-04
   0.552E-02 0.123E-04 0.229E-04   -.711E-02 -.169E-04 -.169E-04   -.124E-02 -.112E-05 0.278E-05   -.228E-04 0.520E-05 -.420E-05
   0.554E-02 0.546E-02 0.545E-02   -.711E-02 -.704E-02 -.704E-02   -.126E-02 -.125E-02 -.124E-02   -.512E-04 -.194E-04 -.135E-04
   -.549E-02 0.186E-04 0.544E-02   0.710E-02 -.156E-04 -.704E-02   0.126E-02 0.946E-05 -.125E-02   -.251E-07 -.265E-05 0.806E-05
   -.552E-02 0.543E-02 0.278E-04   0.710E-02 -.704E-02 -.156E-04   0.126E-02 -.125E-02 0.789E-05   0.253E-04 0.121E-04 -.122E-04
   0.548E-02 -.546E-02 -.234E-04   -.711E-02 0.706E-02 -.300E-05   -.127E-02 0.125E-02 -.735E-05   0.297E-04 0.956E-06 0.281E-04
   0.146E-04 -.545E-02 -.545E-02   -.193E-05 0.706E-02 0.706E-02   0.115E-04 0.126E-02 0.126E-02   -.168E-04 -.124E-04 -.929E-05
   0.186E-04 -.663E-05 -.248E-04   -.325E-05 -.167E-05 -.167E-05   0.288E-06 0.389E-06 -.191E-05   -.151E-04 0.674E-05 0.271E-04
   0.548E-02 0.565E-06 -.544E-02   -.711E-02 -.300E-05 0.706E-02   -.127E-02 -.456E-05 0.126E-02   0.340E-04 0.442E-06 -.216E-04
   0.341E-04 -.546E-02 0.153E-04   -.169E-04 0.704E-02 -.169E-04   0.429E-05 0.123E-02 0.255E-05   -.175E-04 0.119E-04 0.685E-06
   0.352E-04 -.339E-04 0.544E-02   -.169E-04 0.169E-04 -.704E-02   0.307E-05 -.859E-06 -.124E-02   -.186E-04 0.148E-04 0.155E-04
   0.543E-02 -.545E-02 0.545E-02   -.704E-02 0.704E-02 -.704E-02   -.125E-02 0.125E-02 -.126E-02   0.649E-05 0.667E-05 -.688E-05
   0.547E-02 -.279E-04 0.179E-04   -.704E-02 0.169E-04 -.169E-04   -.123E-02 -.395E-05 0.116E-05   -.123E-04 0.963E-05 0.219E-06
   0.990E-06 0.545E-02 0.211E-04   -.167E-05 -.704E-02 -.167E-05   0.392E-06 -.123E-02 -.151E-05   0.287E-06 0.267E-05 -.167E-04
   -.545E-02 0.544E-02 -.543E-02   0.706E-02 -.704E-02 0.706E-02   0.126E-02 -.126E-02 0.126E-02   -.267E-05 0.588E-05 -.165E-04
   -.544E-02 -.550E-02 0.534E-05   0.706E-02 0.711E-02 -.341E-06   0.126E-02 0.126E-02 0.600E-05   -.244E-04 -.143E-05 -.514E-05
   0.106E-04 -.550E-02 -.545E-02   -.341E-06 0.711E-02 0.706E-02   0.107E-04 0.126E-02 0.126E-02   -.135E-04 -.237E-05 -.122E-04
   -.547E-02 -.546E-02 0.272E-04   0.704E-02 0.704E-02 -.182E-04   0.125E-02 0.126E-02 -.776E-05   0.234E-04 0.105E-04 -.560E-05
   -.544E-02 -.119E-04 0.545E-02   0.704E-02 0.182E-04 -.704E-02   0.125E-02 0.754E-05 -.126E-02   -.366E-05 -.110E-04 -.394E-05
   -.235E-04 -.544E-02 0.546E-02   0.182E-04 0.704E-02 -.704E-02   0.751E-05 0.126E-02 -.125E-02   0.444E-06 -.118E-04 -.122E-04
   -.372E-04 -.866E-05 0.329E-04   0.169E-04 0.169E-04 -.169E-04   -.419E-05 0.908E-06 -.278E-05   0.192E-04 -.141E-04 -.121E-04
   -.550E-02 0.545E-02 -.165E-04   0.711E-02 -.704E-02 -.299E-05   0.127E-02 -.125E-02 -.928E-05   -.596E-05 -.515E-05 0.195E-04
   0.546E-02 0.546E-02 -.544E-02   -.704E-02 -.704E-02 0.706E-02   -.125E-02 -.125E-02 0.125E-02   -.123E-04 -.191E-04 -.219E-04
   0.545E-02 -.549E-02 -.303E-05   -.704E-02 0.711E-02 -.299E-05   -.126E-02 0.126E-02 -.691E-05   -.350E-05 -.144E-04 0.363E-05
   -.551E-02 -.549E-02 -.545E-02   0.711E-02 0.711E-02 0.706E-02   0.126E-02 0.126E-02 0.125E-02   0.133E-04 -.619E-05 -.974E-05
   0.552E-02 -.547E-02 0.182E-04   -.711E-02 0.704E-02 -.156E-04   -.126E-02 0.125E-02 0.829E-05   -.201E-04 0.284E-04 -.249E-05
   0.550E-02 -.269E-04 0.547E-02   -.711E-02 0.155E-04 -.704E-02   -.126E-02 -.920E-05 -.125E-02   0.561E-05 0.107E-04 -.270E-04
   -.552E-02 -.549E-02 0.546E-02   0.710E-02 0.704E-02 -.704E-02   0.125E-02 0.124E-02 -.125E-02   0.346E-04 0.507E-04 -.201E-04
   -.550E-02 -.817E-05 0.135E-04   0.710E-02 0.169E-04 -.169E-04   0.124E-02 0.401E-06 0.315E-06   0.338E-05 -.126E-04 0.854E-05
   0.550E-02 0.541E-02 -.189E-05   -.711E-02 -.704E-02 -.343E-06   -.127E-02 -.125E-02 0.648E-05   0.125E-04 0.328E-04 0.311E-05
   0.387E-05 0.542E-02 -.544E-02   -.457E-05 -.704E-02 0.706E-02   -.623E-05 -.126E-02 0.126E-02   -.660E-06 0.245E-04 -.268E-04
   -.150E-04 -.552E-02 0.703E-05   -.325E-05 0.711E-02 -.167E-05   -.139E-05 0.124E-02 0.107E-05   0.194E-04 0.117E-04 -.663E-05
   0.551E-02 -.548E-02 -.548E-02   -.711E-02 0.711E-02 0.706E-02   -.126E-02 0.126E-02 0.126E-02   -.107E-04 -.114E-04 0.218E-04
   0.467E-05 0.551E-02 0.310E-04   -.169E-04 -.711E-02 -.169E-04   0.222E-05 -.124E-02 0.104E-05   0.137E-04 -.765E-06 -.112E-04
   0.588E-05 -.549E-02 0.545E-02   -.156E-04 0.710E-02 -.704E-02   0.698E-05 0.126E-02 -.125E-02   0.141E-04 -.520E-05 -.383E-05
   0.545E-02 0.549E-02 0.545E-02   -.704E-02 -.711E-02 -.704E-02   -.125E-02 -.126E-02 -.125E-02   -.120E-04 0.496E-05 -.567E-05
   0.544E-02 -.548E-02 0.357E-04   -.704E-02 0.710E-02 -.156E-04   -.126E-02 0.127E-02 0.812E-05   0.452E-05 -.208E-04 -.189E-04
   0.224E-04 0.285E-05 0.322E-05   -.167E-05 -.325E-05 -.167E-05   0.777E-07 0.756E-06 -.384E-06   -.219E-04 0.101E-05 -.268E-05
   -.548E-02 0.277E-05 -.545E-02   0.706E-02 -.193E-05 0.706E-02   0.125E-02 0.795E-05 0.126E-02   0.192E-04 -.703E-06 -.128E-04
   -.546E-02 0.551E-02 -.175E-04   0.706E-02 -.711E-02 -.300E-05   0.126E-02 -.126E-02 -.115E-04   -.218E-05 -.614E-05 0.244E-04
   0.903E-07 0.552E-02 -.544E-02   -.300E-05 -.711E-02 0.706E-02   -.677E-05 -.126E-02 0.126E-02   0.996E-06 -.193E-04 -.273E-04
   -.543E-02 0.549E-02 0.267E-04   0.704E-02 -.711E-02 -.156E-04   0.125E-02 -.127E-02 0.854E-05   -.125E-04 0.120E-04 -.115E-04
   -.544E-02 -.549E-02 0.546E-02   0.704E-02 0.710E-02 -.704E-02   0.125E-02 0.126E-02 -.125E-02   -.437E-05 0.415E-06 -.203E-04
   -.298E-04 0.551E-02 0.546E-02   0.155E-04 -.711E-02 -.704E-02   -.925E-05 -.126E-02 -.126E-02   0.131E-04 -.125E-04 -.176E-04
   -.671E-05 -.550E-02 0.102E-04   0.169E-04 0.710E-02 -.169E-04   0.117E-05 0.124E-02 -.256E-05   -.137E-04 0.604E-05 0.123E-04
[...]
   -.112E-05 0.551E-02 -.549E-02   0.182E-04 -.711E-02 0.710E-02   0.103E-04 -.127E-02 0.127E-02   -.231E-04 -.137E-04 -.641E-05
   -.328E-04 -.548E-02 0.550E-02   0.182E-04 0.710E-02 -.711E-02   0.355E-05 0.127E-02 -.127E-02   0.156E-04 -.968E-05 -.106E-05
   -.549E-02 0.499E-06 0.550E-02   0.711E-02 -.459E-05 -.711E-02   0.127E-02 -.147E-04 -.127E-02   -.148E-04 0.920E-05 0.810E-05
   0.545E-02 0.320E-04 0.130E-04   -.704E-02 -.325E-05 -.325E-05   -.124E-02 -.140E-05 0.164E-05   0.495E-05 -.270E-04 -.902E-05
   0.543E-02 0.550E-02 0.547E-02   -.704E-02 -.711E-02 -.711E-02   -.126E-02 -.126E-02 -.127E-02   0.109E-04 -.428E-05 0.330E-04
   -.550E-02 0.552E-02 0.153E-05   0.711E-02 -.711E-02 -.459E-05   0.126E-02 -.126E-02 -.110E-04   0.962E-06 -.148E-04 0.492E-05
   0.550E-02 0.552E-02 0.552E-02   -.711E-02 -.711E-02 -.711E-02   -.126E-02 -.126E-02 -.125E-02   -.913E-05 -.216E-04 -.347E-04
   0.550E-02 -.551E-02 -.548E-02   -.711E-02 0.710E-02 0.710E-02   -.126E-02 0.125E-02 0.126E-02   -.427E-05 0.253E-04 -.697E-05
   -.551E-02 0.550E-02 -.549E-02   0.710E-02 -.711E-02 0.710E-02   0.125E-02 -.125E-02 0.126E-02   0.273E-04 -.808E-05 0.507E-05
   -.550E-02 -.552E-02 0.549E-02   0.710E-02 0.710E-02 -.711E-02   0.126E-02 0.126E-02 -.126E-02   0.134E-04 0.393E-04 0.707E-05
   0.548E-02 -.551E-05 0.551E-02   -.711E-02 -.191E-05 -.711E-02   -.126E-02 0.874E-05 -.126E-02   0.229E-04 0.626E-05 -.642E-05
   -.674E-05 -.125E-04 -.678E-05   -.325E-05 -.325E-05 -.325E-05   -.517E-06 -.694E-05 -.423E-05   0.981E-05 0.231E-04 0.128E-04
   0.472E-05 0.551E-02 0.552E-02   -.191E-05 -.711E-02 -.711E-02   0.139E-04 -.126E-02 -.126E-02   -.747E-05 -.427E-05 -.132E-04
   0.549E-02 0.550E-02 -.106E-04   -.711E-02 -.711E-02 -.191E-05   -.127E-02 -.126E-02 0.554E-05   0.188E-04 0.804E-05 0.143E-04
   -.602E-05 0.410E-04 -.190E-04   -.169E-11 0.411E-12 -.399E-11   0.750E-05 -.127E-04 0.649E-05   0.420E-05 -.284E-04 0.947E-05

 POSITION                                       TOTAL-FORCE (eV/Angst)
      0.00000      0.00000      0.00000         0.000006      0.000002     -0.000002
      0.00000      1.77254      1.77254        -0.000004     -0.002852     -0.002850
      1.77254      0.00000      1.77254        -0.002850     -0.000005     -0.002853
      1.77254      1.77254      0.00000        -0.002850     -0.002849     -0.000005
      2.65875      0.88621      2.65875         0.000001      0.002824     -0.000001
      0.88621      0.88621      0.88621         0.002854      0.002850      0.002853
      0.88621      2.65875      2.65875         0.002825      0.000002     -0.000000
      2.65875      2.65875      0.88621         0.000000     -0.000001      0.002827
      3.54496      0.00000      0.00000         0.002822      0.000003      0.000004
      3.54496      1.77254      1.77254         0.002854     -0.002852     -0.002857
      5.31750      0.00000      1.77254        -0.000001      0.000006     -0.002825
      5.31750      1.77254      0.00000        -0.000007     -0.002823      0.000005
      6.20371      0.88621      2.65875         0.002869      0.002852      0.000009
      4.43129      0.88621      0.88621        -0.002853      0.002858      0.002859
      4.43129      2.65875      2.65875        -0.002823     -0.000001     -0.000000
      6.20371      2.65875      0.88621         0.002871      0.000010      0.002854
      7.09004      0.00000      0.00000        -0.002848     -0.000001      0.000005
      7.09004      1.77254      1.77254        -0.002875     -0.002851     -0.002846
      8.86246      0.00000      1.77254         0.002874      0.000010     -0.002850
      8.86246      1.77254      0.00000         0.002876     -0.002853      0.000008
      9.74879      0.88621      2.65875        -0.002870      0.002853     -0.000006
      7.97625      0.88621      0.88621         0.000007      0.002854      0.002853
      7.97625      2.65875      2.65875         0.000001     -0.000001     -0.000001
      9.74879      2.65875      0.88621        -0.002871     -0.000007      0.002854
      0.00000      3.54496      0.00000         0.000004      0.002820      0.000002
      0.00000      5.31750      1.77254         0.000003     -0.000003     -0.002825
      1.77254      3.54496      1.77254        -0.002855      0.002851     -0.002856
      1.77254      5.31750      0.00000        -0.002821     -0.000005      0.000002
      2.65875      4.43129      2.65875        -0.000000     -0.002824      0.000001
      0.88621      4.43129      0.88621         0.002857     -0.002852      0.002861
      0.88621      6.20371      2.65875         0.002853      0.002871      0.000006
      2.65875      6.20371      0.88621         0.000007      0.002872      0.002854
      3.54496      3.54496      0.00000         0.002847      0.002848     -0.000004
      3.54496      5.31750      1.77254         0.002851      0.000003     -0.002852
      5.31750      3.54496      1.77254         0.000003      0.002849     -0.002852
      5.31750      5.31750      0.00000        -0.000005     -0.000005      0.000001
      6.20371      4.43129      2.65875         0.002871     -0.002849     -0.000009
      4.43129      4.43129      0.88621        -0.002845     -0.002848      0.002852
      4.43129      6.20371      2.65875        -0.002850      0.002871     -0.000009
      6.20371      6.20371      0.88621         0.002868      0.002867      0.002853
      7.09004      3.54496      0.00000        -0.002876      0.002850      0.000008
      7.09004      5.31750      1.77254        -0.002872     -0.000010     -0.002851
      8.86246      3.54496      1.77254         0.002871      0.002847     -0.002849
      8.86246      5.31750      0.00000         0.002847     -0.000003      0.000005
      9.74879      4.43129      2.65875        -0.002870     -0.002848      0.000007
      7.97625      4.43129      0.88621        -0.000008     -0.002849      0.002854
      7.97625      6.20371      2.65875        -0.000000      0.002842     -0.000000
      9.74879      6.20371      0.88621        -0.002874      0.002874      0.002858
      0.00000      7.09004      0.00000         0.000004     -0.002845      0.000004
      0.00000      8.86246      1.77254         0.000011      0.002870     -0.002850
      1.77254      7.09004      1.77254        -0.002851     -0.002872     -0.002851
      1.77254      8.86246      0.00000        -0.002853      0.002874      0.000009
      2.65875      7.97625      2.65875        -0.000001      0.000001     -0.000001
      0.88621      7.97625      0.88621         0.002854      0.000008      0.002853
      0.88621      9.74879      2.65875         0.002856     -0.002871     -0.000008
      2.65875      9.74879      0.88621        -0.000009     -0.002874      0.002857
      3.54496      7.09004      0.00000         0.002849     -0.002874      0.000008
      3.54496      8.86246      1.77254         0.002848      0.002874     -0.002852
      5.31750      7.09004      1.77254        -0.000010     -0.002872     -0.002852
      5.31750      8.86246      0.00000        -0.000002      0.002846      0.000003
[...]
      3.54496      8.86246      8.86246         0.002855      0.002876      0.002879
      5.31750      7.09004      8.86246         0.000004     -0.002874      0.002874
      5.31750      8.86246      7.09004         0.000005      0.002873     -0.002874
      6.20371      7.97625      9.74879         0.002870     -0.000010     -0.002872
      4.43129      7.97625      7.97625        -0.002824      0.000000      0.000002
      4.43129      9.74879      9.74879        -0.002855     -0.002877     -0.002878
      6.20371      9.74879      7.97625         0.002872     -0.002869     -0.000009
      7.09004      7.09004      7.09004        -0.002876     -0.002871     -0.002873
      7.09004      8.86246      8.86246        -0.002872      0.002871      0.002873
      8.86246      7.09004      8.86246         0.002873     -0.002869      0.002874
      8.86246      8.86246      7.09004         0.002870      0.002875     -0.002874
      9.74879      7.97625      9.74879        -0.002869      0.000008     -0.002874
      7.97625      7.97625      7.97625        -0.000001      0.000000     -0.000001
      7.97625      9.74879      9.74879         0.000009     -0.002871     -0.002874
      9.74879      9.74879      7.97625        -0.002870     -0.002869      0.000007
    total drift:                                0.000006     -0.000000     -0.000003

  FREE ENERGIE OF THE ION-ELECTRON SYSTEM (eV)
  free  energy   TOTEN  =     -1963.51068343 eV

  energy  without entropy=    -1963.51068343  energy(sigma->0) =    -1963.51068343

 writing wavefunctions