 vasp.6.2.1 16May21 (build Sep 27 2021 21:11:04) gamma-only

 executed on             LinuxIFC date 2023.05.09  18:57:16

 INCAR:
   GGA = PE
   ISTART = 1
   ISPIN = 2
   ENCUT = 700
   ENAUG = 1400
   EDIFF = 1E-6
   IBRION = 2
   POTIM = 0.2
   ALGO = All
   NSW = 0
   EDIFFG = -1E-2
   ISMEAR = 0
   SIGMA = 0.01
   ISIF = 1
   LREAL = .FALSE.
   ISYM = 0
   NELECT = 866
   PREC = Accurate
   LEFG = .TRUE.
   LHYPERFINE = .TRUE.
   LHFCALC = .TRUE.
   HFSCREEN = 0.2
   NCORE = 8
   NELM = 60
   NWRITE = 2
   SYMPREC = 1.0e-8

 POTCAR:    PAW_PBE C 08Apr2002
 POTCAR:    PAW_PBE Pr 23Dec2003
|           W    W    AA    RRRRR   N    N  II  N    N   GGGG   !!!           |
|           W    W   A  A   R    R  NN   N  II  NN   N  G    G  !!!           |
|           W    W  A    A  R    R  N N  N  II  N N  N  G       !!!           |
|           W WW W  AAAAAA  RRRRR   N  N N  II  N  N N  G  GGG   !            |
|           WW  WW  A    A  R   R   N   NN  II  N   NN  G    G                |
|           W    W  A    A  R    R  N    N  II  N    N   GGGG   !!!           |
|     You use a magnetic or noncollinear calculation, but did not specify     |
|     the initial magnetic moment with the MAGMOM tag. Note that a            |
|     default of 1 will be used for all atoms. This ferromagnetic setup       |
|     may break the symmetry of the crystal, in particular it may rule        |
|     out finding an antiferromagnetic solution. Thence, we recommend         |
|     setting the initial magnetic moment manually or verifying carefully     |
|     that this magnetic setup is desired.                                    |

   TITEL  = PAW_PBE C 08Apr2002
   POMASS =   12.011; ZVAL   =    4.000    mass and valenz
   ENMAX  =  400.000; ENMIN  =  300.000 eV

   TITEL  = PAW_PBE Pr 23Dec2003
   POMASS =  140.907; ZVAL   =   13.000    mass and valenz
   ENMAX  =  272.941; ENMIN  =  204.706 eV

  PAW_PBE C 08Apr2002                   :
  PAW_PBE Pr 23Dec2003                  :

 POSCAR: prv2
  positions in direct lattice
  velocities in cartesian coordinates
 exchange correlation table for  LEXCH =        8
   RHO(1)=    0.500       N(1)  =     2000
   RHO(2)=  100.500       N(2)  =     4000

 ion  position               nearest neighbor table
   1  0.000  0.000  1.000- 162 1.53   6 1.53 196 1.54  72 1.54
   2  1.000  0.167  0.167-   7 1.53  24 1.53  21 1.53   6 1.54
   3  0.166  0.000  0.166-   5 1.53   6 1.53  56 1.54  55 1.54
   4  0.167  0.167  1.000-   8 1.53 148 1.53 146 1.53   6 1.54
   5  0.249  0.084  0.249-  81 1.53   3 1.53  10 1.53  76 1.53
   6  0.083  0.084  0.083-   1 1.53   3 1.53   4 1.54   2 1.54
   7  0.083  0.250  0.250-   2 1.53  76 1.53  27 1.54  97 1.54
   8  0.250  0.250  0.083-   4 1.53  10 1.53  27 1.54  33 1.54
   9  0.333  0.000  1.000- 204 1.53  14 1.53 146 1.53  56 1.53
  10  0.333  0.166  0.166-  15 1.53  14 1.53   8 1.53   5 1.53
  11  0.500  0.001  0.166-  63 1.52  14 1.53  64 1.53  13 1.54
  12  0.500  0.167  1.000-  14 1.53 154 1.53  16 1.53 156 1.53
  13  0.583  0.084  0.250-  84 1.53  18 1.53  11 1.54  89 1.54
  14  0.417  0.084  0.082-  11 1.53  12 1.53  10 1.53   9 1.53
  15  0.416  0.249  0.249-  10 1.53 105 1.53  35 1.54  84 1.54
  16  0.583  0.250  0.083-  35 1.52  12 1.53  41 1.53  18 1.53
  17  0.667  0.000  0.000-  64 1.53 154 1.53  22 1.53 212 1.53
  18  0.667  0.167  0.167-  13 1.53  22 1.53  16 1.53  23 1.54
  19  0.833  0.000  0.167-  21 1.53  22 1.53  72 1.53  71 1.54
  20  0.833  0.167  0.000- 164 1.53  24 1.53  22 1.53 162 1.54
  21  0.916  0.084  0.250-  19 1.53  73 1.53  92 1.53   2 1.53
  22  0.750  0.084  0.084-  19 1.53  17 1.53  18 1.53  20 1.53
  23  0.750  0.250  0.250-  43 1.53 111 1.53  92 1.54  18 1.54
  24  0.917  0.250  0.083-  20 1.53   2 1.53  25 1.54  43 1.54
  25  0.000  0.334  1.000-  30 1.53 186 1.53  24 1.54 148 1.54
  26  0.999  0.500  0.166-  31 1.53  48 1.53  45 1.54  30 1.54
  27  0.166  0.333  0.166-  29 1.53  30 1.53   7 1.54   8 1.54
  28  0.166  0.500  0.999-  32 1.53 172 1.53 170 1.54  30 1.54
  29  0.249  0.417  0.249-  27 1.53  34 1.54 100 1.54 105 1.54
  30  0.083  0.417  0.083-  25 1.53  27 1.53  28 1.54  26 1.54
  31  0.082  0.584  0.249- 100 1.53  26 1.53 119 1.54  51 1.54
  32  0.249  0.584  0.082-  34 1.53  28 1.53  57 1.54  51 1.54
  33  0.333  0.334  0.999-  38 1.53 156 1.53   8 1.54 170 1.54
  34  0.331  0.500  0.165-  32 1.53  39 1.53  29 1.54  38 1.54
  35  0.500  0.332  0.165-  16 1.52  15 1.54  38 1.54  37 1.54
  36  0.500  0.500  1.000- 178 1.53  38 1.53 180 1.54  40 1.54
  37  0.583  0.416  0.250- 108 1.48  42 1.53 111 1.54  35 1.54
  38  0.416  0.417  0.083-  33 1.53  36 1.53  34 1.54  35 1.54
  39  0.415  0.583  0.248- 108 1.51  34 1.53  59 1.54 127 1.56
  40  0.583  0.584  0.084-  59 1.53  42 1.53  65 1.54  36 1.54
  41  0.667  0.334  0.001- 178 1.53  16 1.53 164 1.54  46 1.54
  42  0.666  0.501  0.168-  40 1.53  37 1.53  47 1.54  46 1.54
  43  0.833  0.334  0.167-  45 1.53  46 1.53  23 1.53  24 1.54
  44  0.834  0.500  0.001- 188 1.53  48 1.53  46 1.54 186 1.54
  45  0.916  0.417  0.250-  43 1.53  97 1.54  26 1.54 114 1.54
  46  0.750  0.417  0.084-  43 1.53  41 1.54  44 1.54  42 1.54
  47  0.748  0.585  0.252- 134 1.51  42 1.54 114 1.54  67 1.55
  48  0.916  0.584  0.084-  44 1.53  26 1.53  67 1.54  49 1.54
  49  0.000  0.667  1.000-  54 1.53 210 1.53  48 1.54 172 1.54
  50  1.000  0.834  0.167-  72 1.53  55 1.53  54 1.54  69 1.54
  51  0.165  0.667  0.165-  53 1.52  54 1.52  31 1.54  32 1.54
  52  0.167  0.834  1.000- 196 1.53  56 1.53  54 1.54 194 1.54
  53  0.248  0.751  0.248- 127 1.52  51 1.52 122 1.54  58 1.54
  54  0.083  0.750  0.083-  51 1.52  49 1.53  50 1.54  52 1.54
  55  0.083  0.917  0.250- 122 1.53  50 1.53  73 1.53   3 1.54
  56  0.250  0.917  0.083-  58 1.53  52 1.53   9 1.53   3 1.54
  57  0.333  0.667  0.999- 194 1.53 180 1.54  32 1.54  62 1.54
  58  0.333  0.834  0.166-  56 1.53  62 1.54  53 1.54  63 1.54
  59  0.500  0.667  0.167-  40 1.53  39 1.54  62 1.54  61 1.54
  60  0.500  0.834  1.000-  64 1.54 204 1.54  62 1.54 202 1.54
[...]
 200  0.500  0.667  0.833- 180 1.53 181 1.54 202 1.54 203 1.54
 201  0.501  0.836  0.668- 130 1.49 205 1.53 203 1.54 132 1.54
 202  0.583  0.750  0.917-  60 1.54 207 1.54  65 1.54 200 1.54
 203  0.417  0.750  0.749- 198 1.51 200 1.54 201 1.54 199 1.54
 204  0.417  0.917  0.917-   9 1.53 199 1.53 152 1.53  60 1.54
 205  0.583  0.919  0.752- 152 1.52 201 1.53 158 1.54 207 1.54
 206  0.669  0.669  0.669- 130 1.52 211 1.52 181 1.56 117 1.56 214 2.63
 207  0.667  0.834  0.834- 212 1.53 202 1.54 211 1.54 205 1.54
 208  0.835  0.667  0.835- 211 1.52 210 1.52 188 1.54 189 1.54
 209  0.834  0.834  0.667- 213 1.53 138 1.54 211 1.54 140 1.54
 210  0.917  0.750  0.917- 208 1.52  49 1.53  68 1.54 191 1.54
 211  0.752  0.751  0.752- 206 1.52 208 1.52 207 1.54 209 1.54
 212  0.750  0.917  0.917- 207 1.53  68 1.53  17 1.53 160 1.54
 213  0.917  0.917  0.750- 209 1.53 191 1.53 142 1.53 160 1.54
 214  0.500  0.608  0.500- 131 2.16 130 2.16 106 2.24 177 2.24 108 2.24 112 2.24 110 2.46 109 2.46
                           198 2.60 134 2.60 127 2.63 206 2.63

IMPORTANT INFORMATION: All symmetrisations will be switched off!
NOSYMM: (Re-)initialisation of all symmetry stuff for point group C_1.

                                     Primitive cell

  volume of cell :    1202.8529

  direct lattice vectors                    reciprocal lattice vectors
    10.635000229  0.000000000  0.000000000     0.094029147  0.000000000  0.000000000
     0.000000000 10.635000229  0.000000000     0.000000000  0.094029147  0.000000000
     0.000000000  0.000000000 10.635000229     0.000000000  0.000000000  0.094029147

  length of vectors
    10.635000229 10.635000229 10.635000229     0.094029147  0.094029147  0.094029147

  position of ions in fractional coordinates (direct lattice)
     0.000000117  0.000254303  0.999999877
     0.999638696  0.166937864  0.166560750
     0.166290329  0.000207534  0.166290215
     0.166560831  0.166937824  0.999638521
     0.249372238  0.083714037  0.249372263
     0.083142008  0.083680705  0.083141890
     0.082717931  0.250294866  0.249670573
     0.249670601  0.250294905  0.082717816
     0.333224428  0.000415627  0.999648256
     0.332823822  0.166416927  0.165576246
     0.499738051  0.001358124  0.165505821
     0.499999932  0.166875982  0.999999946
     0.583255624  0.083758461  0.249771372
     0.416518147  0.083859208  0.082498782
     0.416084532  0.248923634  0.248535390
     0.583236217  0.249836910  0.083016769
     0.666775549  0.000415688  0.000351568
     0.666616316  0.167015031  0.166783134
     0.833124154  0.000315378  0.166875849
     0.833439251  0.166937863  0.000361307
     0.916355399  0.083666734  0.249999127
     0.750000871  0.083666732  0.083644602
     0.749737033  0.250427471  0.250262968
     0.916500779  0.250399563  0.083499221
     0.000000062  0.333591273  0.999999943
     0.999183612  0.500326953  0.166382579
     0.165824760  0.333406357  0.165824712
     0.166382616  0.500326962  0.999183464
     0.248681245  0.416537805  0.248681319
     0.082893637  0.417021180  0.082893449
     0.082060778  0.583712532  0.249032928
     0.249032902  0.583712552  0.082060514
     0.333166177  0.333607730  0.999430768
     0.331485863  0.500266681  0.164789712
     0.499764827  0.332301025  0.165375466
     0.499999833  0.500364700  0.999999717
     0.582558577  0.416158090  0.249685785
     0.416304859  0.416772928  0.082695336
     0.415477780  0.582753914  0.248160996
     0.583177078  0.583648376  0.083754981
     0.666833679  0.333607799  0.000569006
     0.666017426  0.500556322  0.167637452
     0.832991723  0.333768305  0.167008283
     0.833617425  0.500326953  0.000816389
     0.915861457  0.417238202  0.250236159
     0.749763839  0.417238202  0.084138543
     0.747779001  0.584612898  0.252220995
     0.916394569  0.583818869  0.083605426
     0.000000105  0.667038219  0.999999893
     0.999528229  0.833649324  0.166584882
     0.165233012  0.667181414  0.165232922
     0.166585105  0.833649218  0.999527902
     0.247732512  0.750503103  0.247732667
     0.082691801  0.750461200  0.082691648
     0.082716695  0.917114077  0.249701236
     0.249701136  0.917114132  0.082716468
     0.333240733  0.666998704  0.999434925
     0.332916191  0.834074895  0.165698443
     0.499870462  0.666929004  0.166693531
     0.499999922  0.833754768  0.999999890
[...]
     0.500129045  0.666928944  0.833306039
     0.501188958  0.836158623  0.668485179
     0.583478021  0.750276663  0.916925254
     0.416861233  0.750077704  0.749093037
     0.416699078  0.917290795  0.916838409
     0.583382849  0.919114521  0.752038100
     0.669349549  0.669040520  0.669349977
     0.667083782  0.834074974  0.834301515
     0.834767079  0.667181417  0.834766983
     0.834301552  0.834074897  0.667083801
     0.917308347  0.750461200  0.917308195
     0.752267329  0.750503103  0.752267486
     0.750298759  0.917114073  0.917283300
     0.917283519  0.917114129  0.750298853
     0.499999122  0.608151260  0.500000875

  ion indices of the primitive-cell ions
   primitive index   ion index
                 1           1
                 2           2
[...]

           NMR quadrupolar parameters

 Cq : quadrupolar parameter    Cq=e*Q*V_zz/h
 eta: asymmetry parameters     (V_yy - V_xx)/ V_zz
 Q  : nuclear electric quadrupole moment in mb (millibarn)
 ion       Cq(MHz)       eta       Q (mb)
   1      -0.000       0.428       1.000
   2       0.001       0.044       1.000
   3       0.001       0.248       1.000
   4       0.001       0.044       1.000
   5      -0.003       0.490       1.000
   6      -0.001       0.813       1.000
   7       0.001       0.515       1.000
   8       0.001       0.515       1.000
   9      -0.003       0.181       1.000
  10       0.001       0.895       1.000
  11      -0.007       0.312       1.000
  12       0.001       0.448       1.000
  13       0.001       0.837       1.000
  14      -0.003       0.219       1.000
  15      -0.002       0.585       1.000
  16      -0.003       0.308       1.000
  17      -0.003       0.181       1.000
  18      -0.002       0.257       1.000
  19      -0.003       0.039       1.000
  20       0.001       0.044       1.000
  21       0.002       0.527       1.000
  22       0.002       0.527       1.000
  23      -0.002       0.425       1.000
  24       0.001       0.142       1.000
  25      -0.002       0.874       1.000
  26       0.004       0.888       1.000
  27      -0.002       0.661       1.000
  28       0.004       0.888       1.000
  29       0.004       0.164       1.000
  30      -0.001       0.012       1.000
  31       0.002       0.999       1.000
  32       0.002       0.999       1.000
  33       0.002       0.776       1.000
  34       0.003       0.713       1.000
  35       0.003       0.709       1.000
  36      -0.003       0.632       1.000
  37      -0.011       0.939       1.000
  38       0.002       0.616       1.000
  39       0.010       0.562       1.000
  40      -0.003       0.942       1.000
  41       0.002       0.776       1.000
  42      -0.007       0.611       1.000
  43       0.003       0.491       1.000
  44       0.004       0.888       1.000
  45      -0.003       0.547       1.000
  46      -0.003       0.546       1.000
  47      -0.022       0.326       1.000
  48      -0.003       0.762       1.000
  49      -0.002       0.453       1.000
  50      -0.001       0.768       1.000
  51      -0.005       0.572       1.000
  52      -0.001       0.768       1.000
  53      -0.005       0.452       1.000
  54      -0.003       0.730       1.000
  55      -0.003       0.544       1.000
  56      -0.003       0.544       1.000
  57       0.002       0.497       1.000
  58      -0.002       0.786       1.000
  59      -0.007       0.383       1.000
  60      -0.001       0.134       1.000
[...]
 200      -0.007       0.383       1.000
 201      -0.012       0.594       1.000
 202      -0.003       0.259       1.000
 203      -0.020       0.376       1.000
 204      -0.004       0.257       1.000
 205      -0.012       0.344       1.000
 206      -0.014       0.223       1.000
 207      -0.002       0.786       1.000
 208      -0.005       0.572       1.000
 209      -0.002       0.786       1.000
 210      -0.003       0.730       1.000
 211      -0.005       0.453       1.000
 212      -0.003       0.544       1.000
 213      -0.003       0.544       1.000
 214      -1.227       0.934       1.000

 Total magnetic moment S=     2.0000000

 Fermi contact (isotropic) hyperfine coupling parameter (MHz)
  ion      A_pw      A_1PS     A_1AE     A_1c      A_tot
   1       0.001     0.001     0.005    -0.002     0.005
   2       0.001     0.001     0.006    -0.003     0.005
   3       0.001     0.001     0.001    -0.001     0.001
   4       0.001     0.001     0.005    -0.003     0.005
   5      -0.000    -0.000     0.004     0.000     0.004
   6      -0.000    -0.000    -0.003     0.000    -0.003
   7      -0.000    -0.000     0.002     0.000     0.002
   8      -0.000    -0.000     0.002     0.000     0.002
   9       0.002     0.002     0.022    -0.003     0.022
  10       0.006     0.006     0.046    -0.009     0.046
  11       0.001     0.001     0.039    -0.000     0.039
  12       0.003     0.003     0.055    -0.002     0.054
  13       0.000     0.000     0.002    -0.000     0.002
  14       0.001     0.001    -0.009    -0.002    -0.009
  15      -0.001    -0.001    -0.048    -0.001    -0.048
  16       0.002     0.002     0.039    -0.002     0.039
  17       0.002     0.002     0.022    -0.003     0.022
  18       0.000     0.000     0.001    -0.000     0.001
  19       0.001     0.001     0.001    -0.002     0.001
  20       0.001     0.001     0.005    -0.003     0.005
  21      -0.000    -0.000    -0.003    -0.000    -0.003
  22      -0.000    -0.000    -0.003    -0.000    -0.003
  23      -0.000    -0.000    -0.010     0.000    -0.010
  24      -0.000    -0.000    -0.001     0.000    -0.001
  25       0.001     0.001     0.002    -0.002     0.002
  26       0.002     0.002     0.030    -0.002     0.030
  27       0.004     0.004     0.023    -0.008     0.023
  28       0.002     0.002     0.030    -0.002     0.030
  29      -0.001    -0.001    -0.035     0.001    -0.035
  30      -0.000    -0.000    -0.001     0.000    -0.001
  31       0.002     0.002     0.006    -0.003     0.005
  32       0.002     0.002     0.006    -0.003     0.005
  33       0.001     0.001     0.005    -0.002     0.005
  34       0.016     0.016     0.118    -0.026     0.118
  35       0.016     0.016     0.142    -0.025     0.142
  36       0.003     0.003     0.012    -0.006     0.012
  37      -0.003    -0.003    -0.076     0.002    -0.076
  38      -0.001    -0.001    -0.008     0.001    -0.008
  39      -0.006    -0.006    -0.124     0.005    -0.124
  40      -0.001    -0.001    -0.011     0.002    -0.011
  41       0.001     0.001     0.005    -0.002     0.005
  42       0.004     0.004     0.041    -0.005     0.041
  43      -0.000    -0.000    -0.003     0.000    -0.003
  44       0.002     0.002     0.030    -0.002     0.030
  45       0.000     0.000    -0.004    -0.000    -0.004
  46       0.000     0.000    -0.004    -0.000    -0.004
  47      -0.004    -0.004    -0.071     0.005    -0.071
  48       0.000     0.000    -0.012    -0.001    -0.012
  49       0.000     0.000    -0.020    -0.001    -0.020
  50       0.001     0.001     0.018    -0.002     0.018
  51      -0.001    -0.001    -0.027     0.001    -0.027
  52       0.001     0.001     0.018    -0.002     0.018
  53      -0.008    -0.008    -0.078     0.013    -0.078
  54      -0.001    -0.001    -0.001     0.001    -0.001
  55      -0.001    -0.001    -0.005     0.001    -0.005
  56      -0.001    -0.001    -0.005     0.001    -0.005
  57       0.002     0.002     0.015    -0.003     0.015
  58       0.001     0.001     0.033    -0.000     0.033
  59       0.009     0.009     0.080    -0.014     0.080
  60       0.001     0.001     0.005    -0.002     0.005
[...]
 200       0.009     0.009     0.080    -0.014     0.080
 201       0.003     0.003     0.038    -0.004     0.038
 202      -0.001    -0.001    -0.013     0.002    -0.013
 203       0.007     0.008     0.216    -0.004     0.216
 204       0.002     0.002     0.023    -0.004     0.023
 205       0.000     0.000     0.022     0.001     0.022
 206      -0.004    -0.004    -0.030     0.007    -0.030
 207       0.001     0.001     0.033    -0.000     0.033
 208      -0.001    -0.001    -0.027     0.001    -0.027
 209       0.001     0.001     0.033    -0.000     0.033
 210      -0.001    -0.001    -0.001     0.001    -0.001
 211      -0.008    -0.008    -0.078     0.013    -0.078
 212      -0.001    -0.001    -0.005     0.001    -0.005
 213      -0.001    -0.001    -0.005     0.001    -0.005
 214      14.693    14.133   110.481   -63.775   111.042

 Dipolar hyperfine coupling parameters (MHz)
  ion      A_xx      A_yy      A_zz      A_xy      A_xz      A_yz
   1      -0.000     0.000    -0.000    -0.000     0.001     0.000
   2       0.002     0.001    -0.003     0.002     0.002     0.003
   3      -0.001     0.003    -0.001    -0.001     0.004    -0.001
   4      -0.003     0.001     0.002     0.003     0.002     0.002
   5      -0.005     0.010    -0.005     0.000     0.004     0.000
   6      -0.000     0.001    -0.000     0.000     0.001     0.000
   7       0.005     0.001    -0.006     0.004     0.003     0.004
   8      -0.006     0.001     0.005     0.004     0.003     0.004
   9      -0.011     0.003     0.008    -0.002     0.000     0.004
  10      -0.012     0.010     0.002     0.010     0.010     0.014
  11      -0.012     0.011     0.001    -0.000     0.001    -0.007
  12      -0.008     0.001     0.007    -0.000     0.006     0.000
  13      -0.016     0.021    -0.005    -0.001    -0.002    -0.002
  14      -0.013     0.006     0.007     0.002    -0.000     0.004
  15      -0.026     0.020     0.006     0.007     0.004     0.026
  16      -0.016     0.005     0.011    -0.007    -0.006     0.010
  17      -0.011     0.003     0.008     0.002     0.000    -0.004
  18      -0.010     0.009     0.001    -0.004    -0.003     0.004
  19      -0.002     0.004    -0.002     0.004    -0.003    -0.004
  20      -0.003     0.001     0.002    -0.003     0.002    -0.002
  21       0.002     0.004    -0.006     0.001    -0.001    -0.000
  22      -0.006     0.004     0.002     0.000    -0.001    -0.001
  23      -0.004     0.007    -0.004    -0.009    -0.005     0.009
  24       0.001    -0.002     0.001    -0.001    -0.001     0.001
  25       0.004    -0.007     0.004    -0.000     0.002    -0.000
  26       0.011    -0.014     0.003     0.000     0.003     0.004
  27       0.003    -0.005     0.003     0.013     0.014     0.013
  28       0.003    -0.014     0.011     0.004     0.003     0.000
  29       0.004    -0.007     0.004     0.017     0.025     0.017
  30       0.005    -0.009     0.005     0.002     0.003     0.002
  31       0.020    -0.022     0.002    -0.002     0.015    -0.003
  32       0.002    -0.022     0.020    -0.003     0.015    -0.002
  33      -0.010    -0.004     0.014     0.006     0.001     0.001
  34      -0.001    -0.024     0.026     0.034     0.047     0.032
  35      -0.019     0.005     0.014     0.027     0.023     0.045
  36      -0.018    -0.019     0.037     0.000    -0.003     0.000
  37      -0.046     0.006     0.040    -0.016    -0.021     0.069
  38      -0.019    -0.012     0.031     0.005     0.004     0.010
  39      -0.024    -0.077     0.101    -0.001     0.074     0.008
  40      -0.023    -0.024     0.048     0.001    -0.007     0.001
  41      -0.010    -0.004     0.014    -0.006     0.001    -0.001
  42      -0.013    -0.023     0.036    -0.001    -0.030     0.014
  43       0.002    -0.005     0.002    -0.006    -0.007     0.006
  44       0.003    -0.014     0.011    -0.004     0.003    -0.000
  45       0.014    -0.011    -0.003    -0.005    -0.007     0.005
  46      -0.003    -0.011     0.014    -0.005    -0.007     0.005
  47       0.018    -0.036     0.018     0.001    -0.044    -0.001
  48       0.007    -0.014     0.007    -0.000    -0.000     0.000
  49       0.003    -0.007     0.003     0.000    -0.001    -0.000
  50       0.006    -0.004    -0.002     0.002    -0.001    -0.005
  51       0.005    -0.010     0.005    -0.004     0.009    -0.004
  52      -0.002    -0.004     0.006    -0.005    -0.001     0.002
  53       0.007    -0.014     0.007    -0.004     0.015    -0.004
  54       0.004    -0.009     0.004    -0.001     0.000    -0.001
  55       0.006    -0.001    -0.005    -0.002     0.002    -0.003
  56      -0.005    -0.001     0.006    -0.003     0.002    -0.002
  57      -0.012    -0.016     0.028    -0.004    -0.001    -0.002
  58      -0.011    -0.003     0.014    -0.010     0.013    -0.016
  59      -0.032    -0.034     0.066     0.012    -0.008    -0.024
  60      -0.015    -0.006     0.021    -0.000     0.000    -0.000
[...]
 200      -0.032    -0.034     0.066    -0.012    -0.008     0.024
 201      -0.056     0.063    -0.006     0.003    -0.003     0.075
 202      -0.019    -0.013     0.032     0.002     0.006     0.009
 203      -0.053    -0.026     0.079    -0.017    -0.019     0.074
 204      -0.017     0.004     0.014     0.002     0.002     0.013
 205      -0.020     0.019     0.001     0.010     0.007     0.022
 206       0.020    -0.041     0.020     0.038     0.108     0.038
 207      -0.011    -0.003     0.014     0.010     0.013     0.016
 208       0.005    -0.010     0.005     0.004     0.009     0.004
 209       0.014    -0.003    -0.011     0.016     0.013     0.010
 210       0.004    -0.009     0.004     0.001     0.000     0.001
 211       0.007    -0.014     0.007     0.004     0.015     0.004
 212      -0.005    -0.001     0.006     0.003     0.002     0.002
 213       0.006    -0.001    -0.005     0.002     0.002     0.003
 214      -5.195    10.391    -5.195     0.001     6.686    -0.001

 Total hyperfine coupling parameters after diagonalization (MHz)
 (convention: |A_zz| > |A_xx| > |A_yy|)
  ion      A_xx      A_yy      A_zz     asymmetry (A_yy - A_xx)/ A_zz
   1       0.005     0.004     0.006      -0.280
   2       0.005     0.001     0.010      -0.403
   3      -0.005     0.001     0.005       1.096
   4       0.005     0.001     0.010      -0.404
   5      -0.005     0.003     0.014       0.598
   6      -0.003    -0.002    -0.004      -0.280
   7      -0.006     0.001     0.011       0.579
   8      -0.006     0.001     0.011       0.578
   9       0.024     0.010     0.032      -0.404
  10       0.038     0.028     0.072      -0.131
  11       0.036     0.027     0.054      -0.177
  12       0.055     0.044     0.064      -0.174
  13      -0.015    -0.003     0.022       0.546
  14      -0.006     0.002    -0.022      -0.351
  15      -0.062    -0.008    -0.075      -0.728
  16       0.037     0.020     0.059      -0.272
  17       0.024     0.010     0.032      -0.404
  18      -0.010     0.000     0.012       0.892
  19      -0.004    -0.003     0.010       0.139
  20       0.005     0.001     0.010      -0.403
  21      -0.001     0.001    -0.009      -0.225
  22      -0.001     0.001    -0.009      -0.225
  23      -0.018     0.008    -0.019      -1.377
  24       0.001    -0.001    -0.004       0.555
  25      -0.006     0.003     0.007       1.125
  26       0.033     0.016     0.042      -0.410
  27       0.011     0.007     0.050      -0.073
  28       0.033     0.016     0.042      -0.410
  29      -0.054     0.006    -0.056      -1.067
  30       0.007     0.001    -0.011       0.613
  31      -0.017    -0.001     0.034       0.468
  32      -0.017    -0.001     0.034       0.468
  33      -0.008     0.004     0.019       0.637
  34       0.085     0.069     0.200      -0.081
  35       0.111     0.103     0.211      -0.038
  36      -0.007    -0.006     0.049       0.010
  37      -0.124     0.022    -0.127      -1.154
  38       0.026    -0.020    -0.029       1.588
  39      -0.181     0.011    -0.203      -0.950
  40      -0.036    -0.035     0.037       0.038
  41      -0.008     0.004     0.019       0.637
  42       0.020     0.010     0.093      -0.102
  43       0.011    -0.007    -0.011       1.566
  44       0.033     0.016     0.042      -0.410
  45       0.014    -0.009    -0.018       1.295
  46       0.014    -0.009    -0.018       1.296
  47      -0.097    -0.008    -0.106      -0.835
  48      -0.005    -0.005    -0.027      -0.020
  49      -0.018    -0.016    -0.027      -0.086
  50       0.019     0.010     0.024      -0.377
  51      -0.030    -0.012    -0.038      -0.491
  52       0.019     0.010     0.024      -0.377
  53      -0.086    -0.055    -0.093      -0.330
  54       0.004     0.003    -0.011       0.086
  55      -0.006     0.002    -0.012      -0.685
  56      -0.006     0.002    -0.012      -0.685
  57       0.006    -0.004     0.043      -0.229
  58       0.021     0.015     0.063      -0.091
  59       0.054     0.033     0.152      -0.134
  60      -0.010    -0.002     0.026       0.328
[...]
 200       0.053     0.033     0.152      -0.134
 201      -0.022    -0.013     0.149       0.063
 202      -0.028     0.021    -0.034      -1.476
 203       0.162     0.148     0.337      -0.043
 204       0.017     0.005     0.045      -0.272
 205       0.009     0.000     0.058      -0.142
 206       0.114    -0.086    -0.118       1.689
 207       0.021     0.015     0.063      -0.091
 208      -0.030    -0.012    -0.038      -0.491
 209       0.021     0.015     0.063      -0.091
 210       0.004     0.003    -0.011       0.086
 211      -0.086    -0.055    -0.093      -0.330
 212      -0.006     0.002    -0.012      -0.686
 213      -0.006     0.002    -0.012      -0.685
 214     112.532    99.161   121.433      -0.110

 writing wavefunctions