 vasp.6.2.1 16May21 (build Sep 27 2021 21:11:04) gamma-only

 executed on             LinuxIFC date 2023.05.09  18:35:23

 INCAR:
   GGA = PE
   ISTART = 1
   ISPIN = 2
   ENCUT = 700
   ENAUG = 1400
   EDIFF = 1E-6
   IBRION = 2
   POTIM = 0.2
   ALGO = All
   NSW = 0
   EDIFFG = -1E-2
   ISMEAR = 0
   SIGMA = 0.01
   ISIF = 1
   LREAL = .FALSE.
   ISYM = 0
   NELECT = 866
   PREC = Accurate
   LDMATRIX = .TRUE.
   NCORE = 8
   NELM = 60
   NWRITE = 2
   SYMPREC = 1.0e-8

 POTCAR:    PAW_PBE C 08Apr2002
 POTCAR:    PAW_PBE Pr 23Dec2003
|           W    W    AA    RRRRR   N    N  II  N    N   GGGG   !!!           |
|           W    W   A  A   R    R  NN   N  II  NN   N  G    G  !!!           |
|           W    W  A    A  R    R  N N  N  II  N N  N  G       !!!           |
|           W WW W  AAAAAA  RRRRR   N  N N  II  N  N N  G  GGG   !            |
|           WW  WW  A    A  R   R   N   NN  II  N   NN  G    G                |
|           W    W  A    A  R    R  N    N  II  N    N   GGGG   !!!           |
|     You use a magnetic or noncollinear calculation, but did not specify     |
|     the initial magnetic moment with the MAGMOM tag. Note that a            |
|     default of 1 will be used for all atoms. This ferromagnetic setup       |
|     may break the symmetry of the crystal, in particular it may rule        |
|     out finding an antiferromagnetic solution. Thence, we recommend         |
|     setting the initial magnetic moment manually or verifying carefully     |
|     that this magnetic setup is desired.                                    |

   TITEL  = PAW_PBE C 08Apr2002
   POMASS =   12.011; ZVAL   =    4.000    mass and valenz
   ENMAX  =  400.000; ENMIN  =  300.000 eV

   TITEL  = PAW_PBE Pr 23Dec2003
   POMASS =  140.907; ZVAL   =   13.000    mass and valenz
   ENMAX  =  272.941; ENMIN  =  204.706 eV

  PAW_PBE C 08Apr2002                   :
  PAW_PBE Pr 23Dec2003                  :

 POSCAR: prv2
  positions in direct lattice
  velocities in cartesian coordinates
 exchange correlation table for  LEXCH =        8
   RHO(1)=    0.500       N(1)  =     2000
   RHO(2)=  100.500       N(2)  =     4000

 ion  position               nearest neighbor table
   1  0.000  0.000  1.000- 162 1.53   6 1.53 196 1.54  72 1.54
   2  1.000  0.167  0.167-   7 1.53  24 1.53  21 1.53   6 1.54
   3  0.166  0.000  0.166-   5 1.53   6 1.53  56 1.54  55 1.54
   4  0.167  0.167  1.000-   8 1.53 148 1.53 146 1.53   6 1.54
   5  0.249  0.084  0.249-  81 1.53   3 1.53  10 1.53  76 1.53
   6  0.083  0.084  0.083-   1 1.53   3 1.53   4 1.54   2 1.54
   7  0.083  0.250  0.250-   2 1.53  76 1.53  27 1.54  97 1.54
   8  0.250  0.250  0.083-   4 1.53  10 1.53  27 1.54  33 1.54
   9  0.333  0.000  1.000- 204 1.53  14 1.53 146 1.53  56 1.53
  10  0.333  0.166  0.166-  15 1.53  14 1.53   8 1.53   5 1.53
  11  0.500  0.001  0.166-  63 1.52  14 1.53  64 1.53  13 1.54
  12  0.500  0.167  1.000-  14 1.53 154 1.53  16 1.53 156 1.53
  13  0.583  0.084  0.250-  84 1.53  18 1.53  11 1.54  89 1.54
  14  0.417  0.084  0.082-  11 1.53  12 1.53  10 1.53   9 1.53
  15  0.416  0.249  0.249-  10 1.53 105 1.53  35 1.54  84 1.54
  16  0.583  0.250  0.083-  35 1.52  12 1.53  41 1.53  18 1.53
  17  0.667  0.000  0.000-  64 1.53 154 1.53  22 1.53 212 1.53
  18  0.667  0.167  0.167-  13 1.53  22 1.53  16 1.53  23 1.54
  19  0.833  0.000  0.167-  21 1.53  22 1.53  72 1.53  71 1.54
  20  0.833  0.167  0.000- 164 1.53  24 1.53  22 1.53 162 1.54
  21  0.916  0.084  0.250-  19 1.53  73 1.53  92 1.53   2 1.53
  22  0.750  0.084  0.084-  19 1.53  17 1.53  18 1.53  20 1.53
  23  0.750  0.250  0.250-  43 1.53 111 1.53  92 1.54  18 1.54
  24  0.917  0.250  0.083-  20 1.53   2 1.53  25 1.54  43 1.54
  25  0.000  0.334  1.000-  30 1.53 186 1.53  24 1.54 148 1.54
  26  0.999  0.500  0.166-  31 1.53  48 1.53  45 1.54  30 1.54
  27  0.166  0.333  0.166-  29 1.53  30 1.53   7 1.54   8 1.54
  28  0.166  0.500  0.999-  32 1.53 172 1.53 170 1.54  30 1.54
  29  0.249  0.417  0.249-  27 1.53  34 1.54 100 1.54 105 1.54
  30  0.083  0.417  0.083-  25 1.53  27 1.53  28 1.54  26 1.54
  31  0.082  0.584  0.249- 100 1.53  26 1.53 119 1.54  51 1.54
  32  0.249  0.584  0.082-  34 1.53  28 1.53  57 1.54  51 1.54
  33  0.333  0.334  0.999-  38 1.53 156 1.53   8 1.54 170 1.54
  34  0.331  0.500  0.165-  32 1.53  39 1.53  29 1.54  38 1.54
  35  0.500  0.332  0.165-  16 1.52  15 1.54  38 1.54  37 1.54
  36  0.500  0.500  1.000- 178 1.53  38 1.53 180 1.54  40 1.54
  37  0.583  0.416  0.250- 108 1.48  42 1.53 111 1.54  35 1.54
  38  0.416  0.417  0.083-  33 1.53  36 1.53  34 1.54  35 1.54
  39  0.415  0.583  0.248- 108 1.51  34 1.53  59 1.54 127 1.56
  40  0.583  0.584  0.084-  59 1.53  42 1.53  65 1.54  36 1.54
  41  0.667  0.334  0.001- 178 1.53  16 1.53 164 1.54  46 1.54
  42  0.666  0.501  0.168-  40 1.53  37 1.53  47 1.54  46 1.54
  43  0.833  0.334  0.167-  45 1.53  46 1.53  23 1.53  24 1.54
  44  0.834  0.500  0.001- 188 1.53  48 1.53  46 1.54 186 1.54
  45  0.916  0.417  0.250-  43 1.53  97 1.54  26 1.54 114 1.54
  46  0.750  0.417  0.084-  43 1.53  41 1.54  44 1.54  42 1.54
  47  0.748  0.585  0.252- 134 1.51  42 1.54 114 1.54  67 1.55
  48  0.916  0.584  0.084-  44 1.53  26 1.53  67 1.54  49 1.54
  49  0.000  0.667  1.000-  54 1.53 210 1.53  48 1.54 172 1.54
  50  1.000  0.834  0.167-  72 1.53  55 1.53  54 1.54  69 1.54
  51  0.165  0.667  0.165-  53 1.52  54 1.52  31 1.54  32 1.54
  52  0.167  0.834  1.000- 196 1.53  56 1.53  54 1.54 194 1.54
  53  0.248  0.751  0.248- 127 1.52  51 1.52 122 1.54  58 1.54
  54  0.083  0.750  0.083-  51 1.52  49 1.53  50 1.54  52 1.54
  55  0.083  0.917  0.250- 122 1.53  50 1.53  73 1.53   3 1.54
  56  0.250  0.917  0.083-  58 1.53  52 1.53   9 1.53   3 1.54
  57  0.333  0.667  0.999- 194 1.53 180 1.54  32 1.54  62 1.54
  58  0.333  0.834  0.166-  56 1.53  62 1.54  53 1.54  63 1.54
  59  0.500  0.667  0.167-  40 1.53  39 1.54  62 1.54  61 1.54
  60  0.500  0.834  1.000-  64 1.54 204 1.54  62 1.54 202 1.54
[...]
 200  0.500  0.667  0.833- 180 1.53 181 1.54 202 1.54 203 1.54
 201  0.501  0.836  0.668- 130 1.49 205 1.53 203 1.54 132 1.54
 202  0.583  0.750  0.917-  60 1.54 207 1.54  65 1.54 200 1.54
 203  0.417  0.750  0.749- 198 1.51 200 1.54 201 1.54 199 1.54
 204  0.417  0.917  0.917-   9 1.53 199 1.53 152 1.53  60 1.54
 205  0.583  0.919  0.752- 152 1.52 201 1.53 158 1.54 207 1.54
 206  0.669  0.669  0.669- 130 1.52 211 1.52 181 1.56 117 1.56 214 2.63
 207  0.667  0.834  0.834- 212 1.53 202 1.54 211 1.54 205 1.54
 208  0.835  0.667  0.835- 211 1.52 210 1.52 188 1.54 189 1.54
 209  0.834  0.834  0.667- 213 1.53 138 1.54 211 1.54 140 1.54
 210  0.917  0.750  0.917- 208 1.52  49 1.53  68 1.54 191 1.54
 211  0.752  0.751  0.752- 206 1.52 208 1.52 207 1.54 209 1.54
 212  0.750  0.917  0.917- 207 1.53  68 1.53  17 1.53 160 1.54
 213  0.917  0.917  0.750- 209 1.53 191 1.53 142 1.53 160 1.54
 214  0.500  0.608  0.500- 131 2.16 130 2.16 106 2.24 177 2.24 108 2.24 112 2.24 110 2.46 109 2.46
                           198 2.60 134 2.60 127 2.63 206 2.63

IMPORTANT INFORMATION: All symmetrisations will be switched off!
NOSYMM: (Re-)initialisation of all symmetry stuff for point group C_1.

                                     Primitive cell

  volume of cell :    1202.8529

  direct lattice vectors                    reciprocal lattice vectors
    10.635000229  0.000000000  0.000000000     0.094029147  0.000000000  0.000000000
     0.000000000 10.635000229  0.000000000     0.000000000  0.094029147  0.000000000
     0.000000000  0.000000000 10.635000229     0.000000000  0.000000000  0.094029147

  length of vectors
    10.635000229 10.635000229 10.635000229     0.094029147  0.094029147  0.094029147

  position of ions in fractional coordinates (direct lattice)
     0.000000117  0.000254303  0.999999877
     0.999638696  0.166937864  0.166560750
     0.166290329  0.000207534  0.166290215
     0.166560831  0.166937824  0.999638521
     0.249372238  0.083714037  0.249372263
     0.083142008  0.083680705  0.083141890
     0.082717931  0.250294866  0.249670573
     0.249670601  0.250294905  0.082717816
     0.333224428  0.000415627  0.999648256
     0.332823822  0.166416927  0.165576246
     0.499738051  0.001358124  0.165505821
     0.499999932  0.166875982  0.999999946
     0.583255624  0.083758461  0.249771372
     0.416518147  0.083859208  0.082498782
     0.416084532  0.248923634  0.248535390
     0.583236217  0.249836910  0.083016769
     0.666775549  0.000415688  0.000351568
     0.666616316  0.167015031  0.166783134
     0.833124154  0.000315378  0.166875849
     0.833439251  0.166937863  0.000361307
     0.916355399  0.083666734  0.249999127
     0.750000871  0.083666732  0.083644602
     0.749737033  0.250427471  0.250262968
     0.916500779  0.250399563  0.083499221
     0.000000062  0.333591273  0.999999943
     0.999183612  0.500326953  0.166382579
     0.165824760  0.333406357  0.165824712
     0.166382616  0.500326962  0.999183464
     0.248681245  0.416537805  0.248681319
     0.082893637  0.417021180  0.082893449
     0.082060778  0.583712532  0.249032928
     0.249032902  0.583712552  0.082060514
     0.333166177  0.333607730  0.999430768
     0.331485863  0.500266681  0.164789712
     0.499764827  0.332301025  0.165375466
     0.499999833  0.500364700  0.999999717
     0.582558577  0.416158090  0.249685785
     0.416304859  0.416772928  0.082695336
     0.415477780  0.582753914  0.248160996
     0.583177078  0.583648376  0.083754981
     0.666833679  0.333607799  0.000569006
     0.666017426  0.500556322  0.167637452
     0.832991723  0.333768305  0.167008283
     0.833617425  0.500326953  0.000816389
     0.915861457  0.417238202  0.250236159
     0.749763839  0.417238202  0.084138543
     0.747779001  0.584612898  0.252220995
     0.916394569  0.583818869  0.083605426
     0.000000105  0.667038219  0.999999893
     0.999528229  0.833649324  0.166584882
     0.165233012  0.667181414  0.165232922
     0.166585105  0.833649218  0.999527902
     0.247732512  0.750503103  0.247732667
     0.082691801  0.750461200  0.082691648
     0.082716695  0.917114077  0.249701236
     0.249701136  0.917114132  0.082716468
     0.333240733  0.666998704  0.999434925
     0.332916191  0.834074895  0.165698443
     0.499870462  0.666929004  0.166693531
     0.499999922  0.833754768  0.999999890
[...]
     0.500129045  0.666928944  0.833306039
     0.501188958  0.836158623  0.668485179
     0.583478021  0.750276663  0.916925254
     0.416861233  0.750077704  0.749093037
     0.416699078  0.917290795  0.916838409
     0.583382849  0.919114521  0.752038100
     0.669349549  0.669040520  0.669349977
     0.667083782  0.834074974  0.834301515
     0.834767079  0.667181417  0.834766983
     0.834301552  0.834074897  0.667083801
     0.917308347  0.750461200  0.917308195
     0.752267329  0.750503103  0.752267486
     0.750298759  0.917114073  0.917283300
     0.917283519  0.917114129  0.750298853
     0.499999122  0.608151260  0.500000875

  ion indices of the primitive-cell ions
   primitive index   ion index
                 1           1
                 2           2
                 3           3
                 4           4
[...]
    645      20.4845      0.00000
    646      20.6147      0.00000
    647      20.7765      0.00000
    648      20.8324      0.00000

 soft charge-density along one line, spin component           1
         0         1         2         3         4         5         6         7         8         9
 total charge-density along one line

 soft charge-density along one line, spin component           2
         0         1         2         3         4         5         6         7         8         9
 total charge-density along one line

------------------------ aborting loop because EDIFF is reached ----------------------------------------

 only isotrope contributions calculated
  for stress because ISIF=1 (only pressure is correct)

  FORCE on cell =-STRESS in cart. coord.  units (eV):
  Direction    XX          YY          ZZ          XY          YZ          ZX
  Alpha Z  3287.54863  3287.54863  3287.54863
  Ewald  -12889.78067-12806.09500-12889.78064     0.00463    -0.00456    41.22174
  Hartree   970.10234  1004.58227   970.10235     0.00056    -0.00055    26.68244
  E(xc)   -3315.35667 -3315.16620 -3315.35667     0.00001    -0.00001    -0.17993
  Local   -1060.46756 -1174.38428 -1060.46761    -0.00433     0.00426   -67.92627
  n-local  -762.52752  -762.52752  -762.52752     0.00000     0.00000     0.00000
  augment   -80.06872   -80.06872   -80.06872     0.00000     0.00000     0.00000
  Kinetic 13961.36098 13967.31258 13961.36098    -0.00027     0.00024    16.20077
  Fock        0.00000     0.00000     0.00000     0.00000     0.00000     0.00000
  Total     110.81080   121.20175   110.81080     0.00061    -0.00063    15.99875
  in kB     147.59790   161.43845   147.59789     0.00081    -0.00083    21.31003

 VOLUME and BASIS-vectors are now :
  energy-cutoff  :      700.00
  volume of cell :     1202.85
      direct lattice vectors                 reciprocal lattice vectors
    10.635000229  0.000000000  0.000000000     0.094029147  0.000000000  0.000000000
     0.000000000 10.635000229  0.000000000     0.000000000  0.094029147  0.000000000
     0.000000000  0.000000000 10.635000229     0.000000000  0.000000000  0.094029147

  length of vectors
    10.635000229 10.635000229 10.635000229     0.094029147  0.094029147  0.094029147

 FORCES acting on ions:
    Electron-Ion                     Ewald-Force                    Non-Local-Force
   0.538E-03 0.121E+01 -.538E-03   -.542E-03 -.133E+01 0.542E-03   -.385E-05 0.115E+00 0.454E-05
   0.984E+00 0.251E+00 0.872E+00   -.103E+01 -.286E+00 -.837E+00   0.439E-01 0.338E-01 -.356E-01
   0.882E+00 0.147E+01 0.882E+00   -.830E+00 -.160E+01 -.830E+00   -.527E-01 0.131E+00 -.527E-01
   0.872E+00 0.251E+00 0.983E+00   -.838E+00 -.286E+00 -.103E+01   -.356E-01 0.338E-01 0.439E-01
   0.817E+00 0.205E+00 0.817E+00   -.726E+00 -.290E+00 -.726E+00   -.915E-01 0.860E-01 -.915E-01
   0.652E+00 -.271E+00 0.651E+00   -.630E+00 0.246E+00 -.630E+00   -.220E-01 0.250E-01 -.220E-01
   0.145E+01 -.149E+01 0.754E+00   -.145E+01 0.155E+01 -.679E+00   0.311E-02 -.583E-01 -.751E-01
   0.754E+00 -.149E+01 0.145E+01   -.679E+00 0.155E+01 -.145E+01   -.751E-01 -.583E-01 0.310E-02
   0.145E+01 0.181E+01 0.969E+00   -.134E+01 -.193E+01 -.101E+01   -.104E+00 0.119E+00 0.423E-01
   0.166E+01 0.830E+00 0.130E+01   -.164E+01 -.938E+00 -.133E+01   -.221E-01 0.107E+00 0.331E-01
   -.357E+01 0.124E+01 -.113E+00   0.349E+01 -.143E+01 0.218E+00   0.797E-01 0.180E+00 -.104E+00
   -.468E-03 -.946E+00 -.495E-03   0.460E-03 0.932E+00 0.454E-03   -.138E-05 0.126E-01 -.150E-04
   -.189E+01 0.157E+01 -.133E+01   0.192E+01 -.175E+01 0.139E+01   -.282E-01 0.178E+00 -.576E-01
   0.980E+00 0.739E+00 0.748E+00   -.904E+00 -.822E+00 -.763E+00   -.765E-01 0.821E-01 0.132E-01
   -.398E+01 0.768E+00 0.443E+00   0.411E+01 -.600E+00 -.453E+00   -.128E+00 -.166E+00 0.119E-01
   -.305E+01 -.169E+01 -.744E+00   0.298E+01 0.173E+01 0.778E+00   0.784E-01 -.462E-01 -.333E-01
   -.145E+01 0.181E+01 -.970E+00   0.134E+01 -.193E+01 0.101E+01   0.104E+00 0.119E+00 -.423E-01
   -.169E+01 -.131E+01 -.128E+01   0.167E+01 0.135E+01 0.137E+01   0.217E-01 -.376E-01 -.901E-01
   0.522E+00 0.171E+01 -.522E+00   -.669E+00 -.189E+01 0.669E+00   0.149E+00 0.176E+00 -.149E+00
   -.872E+00 0.251E+00 -.984E+00   0.837E+00 -.286E+00 0.103E+01   0.356E-01 0.338E-01 -.439E-01
   0.107E+01 0.183E+00 0.917E+00   -.112E+01 -.257E+00 -.866E+00   0.532E-01 0.742E-01 -.508E-01
   -.917E+00 0.183E+00 -.107E+01   0.866E+00 -.257E+00 0.112E+01   0.508E-01 0.742E-01 -.532E-01
   0.446E+00 -.305E+01 -.446E+00   -.557E+00 0.319E+01 0.557E+00   0.110E+00 -.147E+00 -.110E+00
   0.635E+00 -.173E+01 -.635E+00   -.697E+00 0.182E+01 0.697E+00   0.619E-01 -.941E-01 -.619E-01
   0.472E-03 0.419E+00 -.474E-03   -.452E-03 -.393E+00 0.452E-03   0.884E-05 -.263E-01 -.960E-05
   0.277E+01 0.961E+00 -.682E+00   -.289E+01 -.898E+00 0.729E+00   0.118E+00 -.662E-01 -.477E-01
   0.204E+01 0.384E+00 0.204E+01   -.208E+01 -.378E+00 -.208E+01   0.382E-01 -.670E-02 0.382E-01
   -.682E+00 0.962E+00 0.277E+01   0.728E+00 -.898E+00 -.288E+01   -.476E-01 -.662E-01 0.118E+00
   0.117E+01 -.220E+01 0.117E+01   -.105E+01 0.249E+01 -.105E+01   -.110E+00 -.286E+00 -.110E+00
   0.595E+00 -.203E+01 0.594E+00   -.593E+00 0.220E+01 -.592E+00   -.189E-02 -.165E+00 -.189E-02
   0.243E+01 -.229E+01 -.750E+00   -.247E+01 0.234E+01 0.826E+00   0.357E-01 -.434E-01 -.753E-01
   -.751E+00 -.229E+01 0.243E+01   0.827E+00 0.234E+01 -.247E+01   -.753E-01 -.434E-01 0.357E-01
   0.125E+01 -.238E+01 0.241E+01   -.125E+01 0.250E+01 -.251E+01   0.341E-02 -.123E+00 0.107E+00
   0.360E-01 -.102E+01 0.380E+01   0.626E-01 0.134E+01 -.373E+01   -.993E-01 -.325E+00 -.787E-01
   -.246E+01 -.272E+01 0.655E+00   0.285E+01 0.299E+01 -.404E+00   -.394E+00 -.274E+00 -.253E+00
   -.630E-03 -.281E+01 -.141E-02   0.630E-03 0.306E+01 0.139E-02   0.140E-04 -.241E+00 0.175E-04
   -.153E+02 -.964E+01 -.537E+01   0.156E+02 0.101E+02 0.564E+01   -.298E+00 -.450E+00 -.264E+00
   -.165E+01 -.276E+01 0.125E+01   0.178E+01 0.286E+01 -.112E+01   -.124E+00 -.102E+00 -.134E+00
   -.810E+01 -.949E+01 0.407E+01   0.856E+01 0.962E+01 -.443E+01   -.455E+00 -.125E+00 0.375E+00
   -.167E+01 -.828E+00 -.403E+01   0.167E+01 0.861E+00 0.429E+01   -.589E-02 -.349E-01 -.267E+00
   -.125E+01 -.238E+01 -.241E+01   0.125E+01 0.250E+01 0.252E+01   -.340E-02 -.123E+00 -.107E+00
   -.408E+00 -.491E+01 -.996E+01   0.619E+00 0.529E+01 0.106E+02   -.213E+00 -.385E+00 -.689E+00
   0.121E+01 -.219E+01 -.121E+01   -.129E+01 0.232E+01 0.129E+01   0.769E-01 -.129E+00 -.769E-01
   0.682E+00 0.961E+00 -.277E+01   -.729E+00 -.898E+00 0.289E+01   0.477E-01 -.662E-01 -.118E+00
   0.358E+01 -.355E+01 -.128E+01   -.381E+01 0.381E+01 0.146E+01   0.233E+00 -.259E+00 -.187E+00
   0.128E+01 -.355E+01 -.358E+01   -.146E+01 0.381E+01 0.381E+01   0.187E+00 -.259E+00 -.233E+00
   0.105E+02 0.309E+01 -.105E+02   -.115E+02 -.223E+01 0.115E+02   0.106E+01 -.877E+00 -.106E+01
   0.219E+01 -.149E+01 -.219E+01   -.237E+01 0.172E+01 0.237E+01   0.181E+00 -.228E+00 -.181E+00
   0.558E-03 0.215E+01 -.555E-03   -.518E-03 -.223E+01 0.514E-03   0.100E-04 0.745E-01 -.103E-04
   0.144E+01 0.187E+01 -.702E+00   -.152E+01 -.203E+01 0.829E+00   0.799E-01 0.162E+00 -.128E+00
   0.668E+00 0.238E+01 0.668E+00   -.602E+00 -.230E+01 -.602E+00   -.657E-01 -.786E-01 -.656E-01
   -.701E+00 0.187E+01 0.144E+01   0.828E+00 -.203E+01 -.152E+01   -.128E+00 0.162E+00 0.799E-01
   0.320E+01 -.196E+01 0.320E+01   -.324E+01 0.181E+01 -.324E+01   0.386E-01 0.153E+00 0.385E-01
   0.904E+00 -.166E+01 0.903E+00   -.915E+00 0.163E+01 -.915E+00   0.106E-01 0.274E-01 0.106E-01
   0.145E+01 0.786E+00 0.844E+00   -.144E+01 -.894E+00 -.774E+00   -.700E-02 0.109E+00 -.712E-01
   0.844E+00 0.786E+00 0.145E+01   -.774E+00 -.894E+00 -.144E+01   -.711E-01 0.109E+00 -.700E-02
   -.162E+01 0.807E+00 0.263E+01   0.172E+01 -.754E+00 -.274E+01   -.968E-01 -.539E-01 0.110E+00
   -.168E+01 0.189E+01 0.667E+00   0.188E+01 -.194E+01 -.427E+00   -.207E+00 0.512E-01 -.238E+00
   -.636E+01 0.104E+01 -.500E+01   0.676E+01 -.714E+00 0.561E+01   -.402E+00 -.326E+00 -.612E+00
   -.848E-03 0.348E+01 -.107E-02   0.820E-03 -.354E+01 0.996E-03   -.250E-04 0.583E-01 -.308E-04
[...]
   0.167E+02 0.452E+01 0.222E+01   -.172E+02 -.482E+01 -.208E+01   0.474E+00 0.286E+00 -.151E+00
   0.207E+01 0.225E+01 -.571E+00   -.223E+01 -.243E+01 0.432E+00   0.163E+00 0.176E+00 0.140E+00
   0.116E+01 0.943E+01 0.683E+01   -.194E+01 -.102E+02 -.775E+01   0.789E+00 0.786E+00 0.918E+00
   0.442E+00 0.360E+01 0.137E+01   -.556E+00 -.385E+01 -.156E+01   0.115E+00 0.245E+00 0.192E+00
   -.309E+00 0.166E+00 -.226E+01   -.264E+00 -.479E+00 0.195E+01   0.581E+00 0.314E+00 0.315E+00
   -.356E+01 0.500E+01 -.355E+01   0.384E+01 -.462E+01 0.384E+01   -.296E+00 -.393E+00 -.296E+00
   0.168E+01 0.189E+01 -.668E+00   -.188E+01 -.194E+01 0.427E+00   0.207E+00 0.512E-01 0.238E+00
   -.668E+00 0.238E+01 -.668E+00   0.602E+00 -.230E+01 0.602E+00   0.656E-01 -.786E-01 0.657E-01
   -.667E+00 0.189E+01 0.168E+01   0.427E+00 -.194E+01 -.188E+01   0.238E+00 0.512E-01 0.207E+00
   -.903E+00 -.166E+01 -.904E+00   0.915E+00 0.163E+01 0.916E+00   -.106E-01 0.274E-01 -.106E-01
   -.320E+01 -.196E+01 -.320E+01   0.324E+01 0.181E+01 0.324E+01   -.385E-01 0.153E+00 -.386E-01
   -.844E+00 0.786E+00 -.145E+01   0.774E+00 -.894E+00 0.144E+01   0.712E-01 0.109E+00 0.701E-02
   -.145E+01 0.786E+00 -.844E+00   0.144E+01 -.894E+00 0.774E+00   0.701E-02 0.109E+00 0.711E-01
   -.662E-02 -.541E+02 0.650E-02   0.629E-02 0.546E+02 -.617E-02   -.497E-03 -.430E+00 0.503E-03
   0.203E-03 -.668E+01 -.214E-03   0.368E-12 0.115E-11 -.122E-11   -.622E-03 0.669E+01 0.622E-03

 POSITION                                       TOTAL-FORCE (eV/Angst)
      0.00000      0.00270     10.63500        -0.000006      0.000577      0.000007
     10.63116      1.77538      1.77137         0.000245     -0.000739     -0.000728
      1.76850      0.00221      1.76850        -0.000556     -0.000347     -0.000543
      1.77137      1.77538     10.63116        -0.000717     -0.000715      0.000220
      2.65207      0.89030      2.65207         0.000172     -0.000508      0.000181
      0.88422      0.88994      0.88421        -0.000362     -0.001365     -0.000397
      0.87971      2.66189      2.65525        -0.000088     -0.000119      0.000079
      2.65525      2.66189      0.87970         0.000046     -0.000144     -0.000134
      3.54384      0.00442     10.63126         0.001074     -0.000129     -0.000103
      3.53958      1.76984      1.76090         0.000811     -0.000428     -0.000811
      5.31471      0.01444      1.76015        -0.000387     -0.002915      0.001965
      5.31750      1.77473     10.63500        -0.000008     -0.002149     -0.000058
      6.20292      0.89077      2.65632        -0.000914     -0.001254      0.000897
      4.42967      0.89184      0.87737         0.000854     -0.001346     -0.000968
      4.42506      2.64730      2.64317         0.000573      0.003570      0.001702
      6.20272      2.65702      0.88288        -0.001277      0.001639      0.001486
      7.09116      0.00442      0.00374        -0.001120     -0.000110     -0.000003
      7.08946      1.77620      1.77374        -0.000427     -0.000334     -0.000009
      8.86028      0.00335      1.77472         0.000829     -0.000560     -0.000831
      8.86363      1.77538      0.00384         0.000727     -0.000740     -0.000245
      9.74544      0.88980      2.65874         0.000263     -0.000813      0.000205
      7.97626      0.88980      0.88956        -0.000203     -0.000813     -0.000263
      7.97345      2.66330      2.66155        -0.000698     -0.000000      0.000697
      9.74699      2.66300      0.88801         0.000258     -0.000070     -0.000257
      0.00000      3.54774     10.63500         0.000031      0.001836     -0.000033
     10.62632      5.32098      1.76948         0.000083     -0.000247     -0.001015
      1.76355      3.54578      1.76355        -0.000788      0.000596     -0.000790
      1.76948      5.32098     10.62632        -0.000943     -0.000210     -0.000067
      2.64473      4.42988      2.64473         0.002181      0.001797      0.002210
      0.88157      4.43502      0.88157        -0.000643      0.000196     -0.000652
      0.87272      6.20778      2.64847         0.000321     -0.001355      0.001372
      2.64846      6.20778      0.87271         0.001345     -0.001335      0.000255
      3.54322      3.54792     10.62895         0.000713      0.000535     -0.000368
      3.52535      5.32034      1.75254        -0.000433     -0.001048     -0.002546
      5.31500      3.53402      1.75877        -0.000906      0.000405     -0.001320
      5.31750      5.32138     10.63500         0.000015      0.000285     -0.000006
      6.19551      4.42584      2.65541        -0.003445      0.008751      0.010112
      4.42740      4.43238      0.87946         0.001364      0.001426      0.000720
      4.41861      6.19759      2.63919         0.003952      0.001345      0.010745
      6.20209      6.20710      0.89073        -0.001030     -0.001067      0.001338
      7.09178      3.54792      0.00605        -0.000673      0.000446      0.000291
      7.08310      5.32342      1.78282        -0.001269     -0.000995      0.003351
      8.85887      3.54963      1.77613        -0.000164      0.000909      0.000162
      8.86552      5.32098      0.00868         0.001013     -0.000248     -0.000084
      9.74019      4.43733      2.66126         0.000422      0.000248      0.000484
      7.97374      4.43733      0.89481        -0.000481      0.000246     -0.000420
      7.95263      6.21736      2.68237        -0.002663     -0.002253      0.002665
      9.74586      6.20891      0.88914        -0.000016     -0.002317      0.000019
      0.00000      7.09395     10.63500         0.000052     -0.000765     -0.000053
     10.62998      8.86586      1.77163        -0.000227      0.001078     -0.001185
      1.75725      7.09547      1.75725         0.000269      0.000405      0.000250
      1.77163      8.86586     10.62998        -0.001216      0.001106     -0.000263
      2.63464      7.98160      2.63464        -0.000188     -0.000330     -0.000205
      0.87943      7.98116      0.87943        -0.000216     -0.000248     -0.000300
      0.87969      9.75351      2.65557        -0.000152      0.000705     -0.000003
      2.65557      9.75351      0.87969         0.000058      0.000639     -0.000166
      3.54402      7.09353     10.62899         0.000789     -0.000465     -0.000592
      3.54056      8.87039      1.76220         0.000427     -0.000131      0.001440
      5.31612      7.09279      1.77279        -0.001095     -0.001286      0.002966
      5.31750      8.86698     10.63500        -0.000051      0.000520     -0.000110
[...]
      5.31887      7.09279      8.86221         0.001080     -0.001280     -0.003007
      5.33014      8.89255      7.10934        -0.000986     -0.014525     -0.012879
      6.20529      7.97919      9.75150        -0.000938      0.000228      0.000595
      4.43332      7.97708      7.96660         0.001698     -0.003776     -0.010057
      4.43159      9.75539      9.75058         0.000658     -0.000426     -0.001201
      6.20428      9.77478      7.99793         0.000949      0.000065      0.000513
      7.11853      7.11525      7.11854        -0.007975     -0.005576     -0.007994
      7.09444      8.87039      8.87280        -0.000572     -0.000206     -0.001528
      8.87775      7.09547      8.87775        -0.000252      0.000402     -0.000269
      8.87280      8.87039      7.09444        -0.001443     -0.000133     -0.000427
      9.75557      7.98116      9.75557         0.000302     -0.000248      0.000217
      8.00036      7.98160      8.00036         0.000206     -0.000329      0.000187
      7.97943      9.75351      9.75531         0.000005      0.000707      0.000153
      9.75531      9.75351      7.97943         0.000169      0.000640     -0.000056
      5.31749      6.46769      5.31751        -0.000834     -0.000875      0.000839
    total drift:                               -0.000420      0.002662      0.000408

  FREE ENERGIE OF THE ION-ELECTRON SYSTEM (eV)
  free  energy   TOTEN  =     -1919.58778653 eV

  energy  without entropy=    -1919.58778653  energy(sigma->0) =    -1919.58778653

 Spin-spin contribution to zero-field splitting tensor (MHz)
      D_xx      D_yy      D_zz      D_xy      D_xz      D_yz
   5422.059 -4696.030  -726.029     0.059-10147.841    -0.072

 after diagonalization
     D_diag          eigenvector (x,y,z)
  -4696.030      -0.000     1.000    -0.000
  -8255.212       0.596     0.000     0.803
  12951.242      -0.803    -0.000     0.596

 writing wavefunctions