 vasp.6.2.1 16May21 (build Sep 27 2021 21:11:04) gamma-only

 executed on             LinuxIFC date 2023.05.14  21:11:16

 INCAR:
   GGA = PE
   ISTART = 1
   ISPIN = 2
   ENCUT = 370
   ENAUG = 740
   EDIFF = 1E-6
   IBRION = -1
   POTIM = 0.2
   ALGO = All
   NSW = 0
   EDIFFG = -1E-2
   ISMEAR = -2
   SIGMA = 0.01
   ISIF = 1
   LREAL = .FALSE.
   ISYM = 0
   FERWE = 433*1.00 1*0.00 1*1.00 1000*0.00
   FERDO = 433*1.00 1*0.00 1*0.00 1000*0.00
   NELECT = 867
   LHFCALC = .TRUE.
   HFSCREEN = 0.2
   LDIAG = .FALSE.
   LSUBROT = .FALSE.
   NCORE = 8
   NELM = 60
   NWRITE = 2
   SYMPREC = 1.0e-8

 POTCAR:    PAW_PBE C 08Apr2002
 POTCAR:    PAW_PBE Pr 23Dec2003
|           W    W    AA    RRRRR   N    N  II  N    N   GGGG   !!!           |
|           W    W   A  A   R    R  NN   N  II  NN   N  G    G  !!!           |
|           W    W  A    A  R    R  N N  N  II  N N  N  G       !!!           |
|           W WW W  AAAAAA  RRRRR   N  N N  II  N  N N  G  GGG   !            |
|           WW  WW  A    A  R   R   N   NN  II  N   NN  G    G                |
|           W    W  A    A  R    R  N    N  II  N    N   GGGG   !!!           |
|     You use a magnetic or noncollinear calculation, but did not specify     |
|     the initial magnetic moment with the MAGMOM tag. Note that a            |
|     default of 1 will be used for all atoms. This ferromagnetic setup       |
|     may break the symmetry of the crystal, in particular it may rule        |
|     out finding an antiferromagnetic solution. Thence, we recommend         |
|     setting the initial magnetic moment manually or verifying carefully     |
|     that this magnetic setup is desired.                                    |

   TITEL  = PAW_PBE C 08Apr2002
   POMASS =   12.011; ZVAL   =    4.000    mass and valenz
   ENMAX  =  400.000; ENMIN  =  300.000 eV

   TITEL  = PAW_PBE Pr 23Dec2003
   POMASS =  140.907; ZVAL   =   13.000    mass and valenz
   ENMAX  =  272.941; ENMIN  =  204.706 eV

  PAW_PBE C 08Apr2002                   :
  PAW_PBE Pr 23Dec2003                  :

 POSCAR: prv2
  positions in direct lattice
  velocities in cartesian coordinates
 exchange correlation table for  LEXCH =        8
   RHO(1)=    0.500       N(1)  =     2000
   RHO(2)=  100.500       N(2)  =     4000

 ion  position               nearest neighbor table
   1  0.000  0.000  1.000- 162 1.53   6 1.53 196 1.54  72 1.54
   2  1.000  0.167  0.167-   7 1.53  24 1.53  21 1.54   6 1.54
   3  0.166  0.000  0.166-   5 1.53   6 1.53  55 1.54  56 1.54
   4  0.167  0.167  1.000-   8 1.53 148 1.53 146 1.54   6 1.54
   5  0.249  0.084  0.249-  81 1.53   3 1.53  76 1.54  10 1.54
   6  0.083  0.084  0.083-   1 1.53   3 1.53   4 1.54   2 1.54
   7  0.083  0.250  0.250-   2 1.53  76 1.53  97 1.54  27 1.54
   8  0.250  0.250  0.083-   4 1.53  10 1.53  33 1.54  27 1.54
   9  0.333  0.000  1.000- 204 1.53  14 1.53 146 1.53  56 1.53
  10  0.333  0.166  0.166-  15 1.52  14 1.53   8 1.53   5 1.54
  11  0.500  0.001  0.165-  63 1.52  14 1.53  64 1.54  13 1.54
  12  0.500  0.167  1.000-  14 1.53 154 1.53  16 1.53 156 1.53
  13  0.583  0.084  0.250-  18 1.53  84 1.53  89 1.54  11 1.54
  14  0.417  0.084  0.082-  11 1.53  12 1.53  10 1.53   9 1.53
  15  0.416  0.249  0.248-  10 1.52 105 1.53  84 1.54  35 1.54
  16  0.583  0.250  0.083-  35 1.52  12 1.53  41 1.53  18 1.54
  17  0.667  0.000  0.000-  64 1.53 154 1.53  22 1.53 212 1.53
  18  0.667  0.167  0.167-  13 1.53  22 1.53  16 1.54  23 1.54
  19  0.833  0.000  0.167-  22 1.53  21 1.53  72 1.54  71 1.54
  20  0.833  0.167  0.000- 164 1.53  24 1.53  22 1.54 162 1.54
  21  0.916  0.084  0.250-  19 1.53  73 1.53  92 1.53   2 1.54
  22  0.750  0.084  0.084-  19 1.53  17 1.53  18 1.53  20 1.54
  23  0.750  0.250  0.250-  43 1.53 111 1.54  92 1.54  18 1.54
  24  0.916  0.250  0.084-   2 1.53  20 1.53  25 1.54  43 1.54
  25  0.000  0.334  1.000-  30 1.53 186 1.53  24 1.54 148 1.54
  26  0.999  0.500  0.166-  31 1.53  48 1.53  45 1.54  30 1.54
  27  0.166  0.333  0.166-  29 1.53  30 1.53   7 1.54   8 1.54
  28  0.166  0.500  0.999-  32 1.53 172 1.53 170 1.54  30 1.54
  29  0.249  0.417  0.249-  27 1.53 100 1.54  34 1.54 105 1.54
  30  0.083  0.417  0.083-  25 1.53  27 1.53  28 1.54  26 1.54
  31  0.082  0.584  0.249- 100 1.53  26 1.53 119 1.54  51 1.54
  32  0.249  0.584  0.082-  34 1.53  28 1.53  57 1.54  51 1.54
  33  0.333  0.334  0.999-  38 1.53 156 1.53   8 1.54 170 1.54
  34  0.332  0.501  0.165-  32 1.53  39 1.53  29 1.54  38 1.54
  35  0.500  0.332  0.165-  16 1.52  37 1.54  15 1.54  38 1.54
  36  0.500  0.500  1.000- 178 1.53  38 1.53 180 1.54  40 1.54
  37  0.582  0.416  0.249- 108 1.48  42 1.54  35 1.54 111 1.54
  38  0.416  0.417  0.083-  33 1.53  36 1.53  34 1.54  35 1.54
  39  0.416  0.583  0.248- 108 1.51  34 1.53  59 1.54 127 1.56
  40  0.583  0.584  0.084-  59 1.53  42 1.53  65 1.54  36 1.54
  41  0.667  0.334  0.001- 178 1.53  16 1.53 164 1.54  46 1.54
  42  0.666  0.500  0.168-  40 1.53  37 1.54  46 1.54  47 1.54
  43  0.833  0.334  0.167-  45 1.53  46 1.53  23 1.53  24 1.54
  44  0.834  0.500  0.001- 188 1.53  48 1.53  46 1.54 186 1.54
  45  0.916  0.417  0.250-  43 1.53  97 1.54  26 1.54 114 1.54
  46  0.750  0.417  0.084-  43 1.53  41 1.54  44 1.54  42 1.54
  47  0.748  0.585  0.252- 134 1.51  42 1.54 114 1.54  67 1.55
  48  0.916  0.584  0.084-  44 1.53  26 1.53  67 1.54  49 1.54
  49  0.000  0.667  1.000-  54 1.53 210 1.53  48 1.54 172 1.54
  50  1.000  0.834  0.167-  72 1.53  55 1.53  54 1.54  69 1.54
  51  0.165  0.667  0.165-  54 1.53  53 1.53  31 1.54  32 1.54
  52  0.167  0.834  1.000- 196 1.53  56 1.53  54 1.54 194 1.54
  53  0.248  0.750  0.248- 127 1.52  51 1.53 122 1.54  58 1.54
  54  0.083  0.750  0.083-  51 1.53  49 1.53  52 1.54  50 1.54
  55  0.083  0.917  0.250- 122 1.53  50 1.53  73 1.53   3 1.54
  56  0.250  0.917  0.083-  58 1.53  52 1.53   9 1.53   3 1.54
  57  0.333  0.667  0.999- 194 1.53 180 1.54  32 1.54  62 1.54
  58  0.333  0.834  0.166-  56 1.53  62 1.54  53 1.54  63 1.54
  59  0.500  0.667  0.167-  40 1.53  62 1.54  39 1.54  61 1.54
  60  0.500  0.834  1.000- 204 1.54  64 1.54 202 1.54  62 1.54
[...]
 200  0.500  0.667  0.833- 180 1.53 202 1.54 181 1.54 203 1.54
 201  0.501  0.836  0.668- 130 1.48 205 1.53 132 1.54 203 1.54
 202  0.583  0.750  0.917- 207 1.54  60 1.54 200 1.54  65 1.54
 203  0.417  0.750  0.749- 198 1.51 200 1.54 199 1.54 201 1.54
 204  0.417  0.917  0.917-   9 1.53 199 1.53  60 1.54 152 1.54
 205  0.583  0.919  0.752- 152 1.52 201 1.53 158 1.54 207 1.54
 206  0.669  0.669  0.669- 130 1.52 211 1.52 117 1.56 181 1.56 214 2.63
 207  0.667  0.834  0.834- 212 1.53 202 1.54 211 1.54 205 1.54
 208  0.835  0.667  0.835- 210 1.53 211 1.53 188 1.54 189 1.54
 209  0.834  0.834  0.667- 213 1.53 138 1.54 211 1.54 140 1.54
 210  0.917  0.750  0.917- 208 1.53  49 1.53 191 1.54  68 1.54
 211  0.752  0.750  0.752- 206 1.52 208 1.53 207 1.54 209 1.54
 212  0.750  0.917  0.917- 207 1.53  68 1.53  17 1.53 160 1.54
 213  0.917  0.917  0.750- 209 1.53 191 1.53 142 1.53 160 1.54
 214  0.500  0.605  0.500- 130 2.18 131 2.18 177 2.23 112 2.23 106 2.23 108 2.23 109 2.45 110 2.45
                           198 2.60 134 2.60 206 2.63 127 2.63

IMPORTANT INFORMATION: All symmetrisations will be switched off!
NOSYMM: (Re-)initialisation of all symmetry stuff for point group C_1.

                                     Primitive cell

  volume of cell :    1202.8529

  direct lattice vectors                    reciprocal lattice vectors
    10.635000229  0.000000000  0.000000000     0.094029147  0.000000000  0.000000000
     0.000000000 10.635000229  0.000000000     0.000000000  0.094029147  0.000000000
     0.000000000  0.000000000 10.635000229     0.000000000  0.000000000  0.094029147

  length of vectors
    10.635000229 10.635000229 10.635000229     0.094029147  0.094029147  0.094029147

  position of ions in fractional coordinates (direct lattice)
     0.000000134  0.000245367  0.999999878
     0.999647477  0.166966284  0.166585440
     0.166323474  0.000171308  0.166323375
     0.166585438  0.166966196  0.999647342
     0.249371410  0.083700290  0.249371513
     0.083155667  0.083670514  0.083155600
     0.082729068  0.250317552  0.249687447
     0.249687391  0.250317583  0.082728935
     0.333274241  0.000407846  0.999672060
     0.332889220  0.166356526  0.165526935
     0.499712137  0.001441213  0.165455204
     0.499999891  0.166765954  0.999999921
     0.583245181  0.083823091  0.249758271
     0.416535775  0.083814646  0.082482789
     0.415974344  0.248745816  0.248398607
     0.583160500  0.249735093  0.082861508
     0.666725608  0.000407917  0.000327752
     0.666594390  0.167060363  0.166756068
     0.833104931  0.000319930  0.166895048
     0.833414593  0.166966222  0.000352609
     0.916354371  0.083668030  0.250020140
     0.749979834  0.083668019  0.083645682
     0.749671062  0.250484492  0.250328973
     0.916481403  0.250420020  0.083518641
     0.000000096  0.333625179  0.999999993
     0.999175256  0.500378740  0.166378899
     0.165879321  0.333490491  0.165879317
     0.166378988  0.500378758  0.999174925
     0.248711392  0.416510257  0.248711480
     0.082894159  0.417034001  0.082893908
     0.082074166  0.583685592  0.249011839
     0.249011803  0.583685599  0.082073828
     0.333209843  0.333643507  0.999480238
     0.331519298  0.500515324  0.164937223
     0.499922048  0.332178323  0.165234106
     0.499999820  0.500415251  0.999999823
     0.582187749  0.415945034  0.249486861
     0.416319791  0.416848022  0.082726862
     0.415650413  0.582520831  0.248433437
     0.583147904  0.583696957  0.083852571
     0.666790051  0.333643440  0.000519611
     0.665902228  0.500480904  0.167755282
     0.832953026  0.333820435  0.167046988
     0.833621142  0.500378712  0.000824785
     0.915836585  0.417301454  0.250288311
     0.749711688  0.417301482  0.084163447
     0.747542289  0.584707054  0.252457609
     0.916378308  0.583829641  0.083621712
     0.000000202  0.667023815  0.999999821
     0.999534316  0.833620444  0.166629682
     0.165344684  0.667202317  0.165344546
     0.166629955  0.833620315  0.999533897
     0.248111163  0.750377871  0.248111266
     0.082750758  0.750449796  0.082750456
     0.082773263  0.917057167  0.249760634
     0.249760600  0.917057089  0.082773022
     0.333282488  0.666990296  0.999451467
     0.333037749  0.834067179  0.165827434
     0.499886582  0.666984988  0.166886080
     0.499999844  0.833774109  0.999999776
[...]
     0.500113017  0.666985070  0.833113723
     0.501377599  0.836329859  0.668331798
     0.583391273  0.750253674  0.916844436
     0.416850295  0.750190611  0.748948853
     0.416697627  0.917341356  0.916860657
     0.583221685  0.919224775  0.752029477
     0.668705589  0.669157239  0.668705692
     0.666962080  0.834067191  0.834172390
     0.834655457  0.667202297  0.834655316
     0.834172499  0.834067165  0.666962172
     0.917249561  0.750449794  0.917249267
     0.751888829  0.750377933  0.751888939
     0.750239360  0.917057162  0.917226775
     0.917227011  0.917057082  0.750239390
     0.499999617  0.605482879  0.500000403

  ion indices of the primitive-cell ions
   primitive index   ion index
[...]
[...]
    634      20.9731      0.00000
    635      21.0592      0.00000
    636      21.0445      0.00000
    637      21.0629      0.00000
    638      21.0736      0.00000
    639      21.1260      0.00000
    640      21.1872      0.00000
    641      21.2023      0.00000
    642      21.2759      0.00000
    643      21.2262      0.00000
    644      21.4153      0.00000
    645      21.5468      0.00000
    646      21.7449      0.00000
    647      21.9727      0.00000
    648      21.9882      0.00000

 soft charge-density along one line, spin component           1
         0         1         2         3         4         5         6         7         8         9
 total charge-density along one line

 soft charge-density along one line, spin component           2
         0         1         2         3         4         5         6         7         8         9
 total charge-density along one line

------------------------ aborting loop because EDIFF is reached ----------------------------------------

 only isotrope contributions calculated
  for stress because ISIF=1 (only pressure is correct)

  FORCE on cell =-STRESS in cart. coord.  units (eV):
  Direction    XX          YY          ZZ          XY          YZ          ZX
  Alpha Z  3287.54863  3287.54863  3287.54863
  Ewald  -12887.76796-12809.35783-12887.76793    -0.00329     0.00661    45.03198
  Hartree   959.95651   988.40025   959.95751     0.00092    -0.00011    25.52381
  E(xc)   -2521.82738 -2521.69139 -2521.82732     0.00010     0.00002    -0.06336
  Local   -1166.11663 -1257.28746 -1166.11860     0.00680    -0.00009   -71.04662
  n-local  -630.59766  -630.59766  -630.59766     0.00000     0.00000     0.00000
  augment   -78.45933   -78.45933   -78.45933     0.00000     0.00000     0.00000
  Kinetic 13907.99574 13918.80953 13907.98158    -0.01008    -0.00307    19.95078
  Fock     -862.38128  -869.70244  -862.38177     0.00038    -0.00094     1.43397
  Total       8.35065    27.66230     8.33511    -0.00517     0.00243    20.83055
  in kB      11.12291    36.84566    11.10221    -0.00688     0.00323    27.74590

 VOLUME and BASIS-vectors are now :
  energy-cutoff  :      370.00
  volume of cell :     1202.85
      direct lattice vectors                 reciprocal lattice vectors
    10.635000229  0.000000000  0.000000000     0.094029147  0.000000000  0.000000000
     0.000000000 10.635000229  0.000000000     0.000000000  0.094029147  0.000000000
     0.000000000  0.000000000 10.635000229     0.000000000  0.000000000  0.094029147

  length of vectors
    10.635000229 10.635000229 10.635000229     0.094029147  0.094029147  0.094029147

 FORCES acting on ions:
    Electron-Ion                     Ewald-Force                    Non-Local-Force
   0.805E-03 0.145E+01 -.194E-03   -.492E-03 -.153E+01 0.452E-03   -.355E-04 0.117E+00 -.144E-06
   0.103E+01 0.535E+00 0.126E+01   -.106E+01 -.370E+00 -.117E+01   0.309E-01 -.581E-01 -.921E-01
   0.116E+01 0.193E+01 0.116E+01   -.114E+01 -.195E+01 -.114E+01   -.760E-01 0.971E-01 -.766E-01
   0.126E+01 0.535E+00 0.103E+01   -.117E+01 -.370E+00 -.106E+01   -.923E-01 -.579E-01 0.311E-01
   0.116E+01 0.746E+00 0.116E+01   -.109E+01 -.473E+00 -.109E+01   -.135E+00 -.415E-01 -.134E+00
   0.788E+00 0.388E-01 0.786E+00   -.770E+00 0.677E-01 -.769E+00   -.413E-01 -.154E-01 -.415E-01
   0.163E+01 -.133E+01 0.130E+01   -.157E+01 0.164E+01 -.113E+01   -.554E-01 -.181E+00 -.148E+00
   0.130E+01 -.133E+01 0.163E+01   -.113E+01 0.164E+01 -.157E+01   -.148E+00 -.181E+00 -.550E-01
   0.208E+01 0.223E+01 0.953E+00   -.197E+01 -.227E+01 -.103E+01   -.150E+00 0.113E+00 0.466E-01
   0.250E+01 0.149E+01 0.185E+01   -.231E+01 -.117E+01 -.175E+01   -.162E+00 -.119E+00 -.116E+00
   -.371E+01 0.181E+01 -.231E+00   0.371E+01 -.178E+01 0.178E+00   0.116E+00 0.119E+00 -.685E-01
   -.122E-02 -.396E+00 -.151E-02   0.597E-03 0.735E+00 0.523E-03   -.199E-06 -.141E+00 0.141E-02
   -.214E+01 0.216E+01 -.124E+01   0.220E+01 -.197E+01 0.130E+01   -.475E-02 0.485E-01 -.123E+00
   0.133E+01 0.125E+01 0.817E+00   -.126E+01 -.104E+01 -.878E+00   -.122E+00 -.220E-01 0.175E-02
   -.419E+01 0.130E+01 0.120E+01   0.420E+01 -.482E+00 -.100E+01   -.485E-01 -.550E+00 -.174E+00
   -.380E+01 -.129E+01 -.383E+00   0.354E+01 0.174E+01 0.573E+00   0.232E+00 -.289E+00 -.173E+00
   -.208E+01 0.223E+01 -.955E+00   0.197E+01 -.227E+01 0.103E+01   0.151E+00 0.113E+00 -.466E-01
   -.225E+01 -.958E+00 -.117E+01   0.218E+01 0.135E+01 0.129E+01   0.850E-01 -.192E+00 -.137E+00
   0.251E+00 0.196E+01 -.251E+00   -.425E+00 -.211E+01 0.425E+00   0.202E+00 0.197E+00 -.202E+00
   -.126E+01 0.535E+00 -.103E+01   0.117E+01 -.370E+00 0.106E+01   0.925E-01 -.579E-01 -.310E-01
   0.961E+00 0.545E+00 0.135E+01   -.105E+01 -.455E+00 -.128E+01   0.863E-01 0.185E-01 -.975E-01
   -.135E+01 0.546E+00 -.960E+00   0.128E+01 -.455E+00 0.105E+01   0.978E-01 0.179E-01 -.863E-01
   -.525E-01 -.255E+01 0.509E-01   -.270E+00 0.311E+01 0.270E+00   0.281E+00 -.378E+00 -.281E+00
   0.490E+00 -.156E+01 -.490E+00   -.608E+00 0.184E+01 0.608E+00   0.104E+00 -.185E+00 -.103E+00
   0.748E-03 0.607E+00 -.874E-03   -.625E-03 -.423E+00 0.543E-03   -.263E-04 -.124E+00 0.363E-03
   0.279E+01 0.887E+00 -.444E+00   -.293E+01 -.794E+00 0.605E+00   0.114E+00 -.112E+00 -.146E+00
   0.258E+01 0.574E+00 0.258E+01   -.240E+01 -.292E+00 -.240E+01   -.141E+00 -.196E+00 -.141E+00
   -.443E+00 0.888E+00 0.279E+01   0.605E+00 -.795E+00 -.293E+01   -.146E+00 -.112E+00 0.114E+00
   0.186E+01 -.237E+01 0.186E+01   -.139E+01 0.265E+01 -.139E+01   -.351E+00 -.277E+00 -.350E+00
   0.745E+00 -.205E+01 0.743E+00   -.672E+00 0.228E+01 -.671E+00   -.597E-01 -.203E+00 -.594E-01
   0.267E+01 -.300E+01 -.362E+00   -.261E+01 0.268E+01 0.619E+00   -.102E+00 0.139E+00 -.247E+00
   -.362E+00 -.300E+01 0.267E+01   0.619E+00 0.268E+01 -.260E+01   -.248E+00 0.140E+00 -.101E+00
   0.187E+01 -.242E+01 0.247E+01   -.170E+01 0.277E+01 -.256E+01   -.126E+00 -.262E+00 0.786E-01
   0.882E+00 -.114E+01 0.470E+01   -.373E+00 0.164E+01 -.420E+01   -.458E+00 -.582E+00 -.506E+00
   -.163E+01 -.195E+01 0.162E+01   0.236E+01 0.274E+01 -.908E+00   -.653E+00 -.633E+00 -.609E+00
   -.156E-02 -.334E+01 -.234E-02   0.815E-03 0.349E+01 0.732E-03   0.266E-03 -.227E+00 0.395E-03
   -.168E+02 -.871E+01 -.410E+01   0.165E+02 0.963E+01 0.492E+01   0.196E+00 -.829E+00 -.713E+00
   -.113E+01 -.301E+01 0.153E+01   0.131E+01 0.321E+01 -.113E+01   -.149E+00 -.189E+00 -.337E+00
   -.675E+01 -.119E+02 0.530E+01   0.766E+01 0.109E+02 -.523E+01   -.809E+00 0.447E+00 -.185E+00
   -.191E+01 -.147E+01 -.350E+01   0.188E+01 0.124E+01 0.399E+01   0.485E-01 0.460E-01 -.441E+00
   -.187E+01 -.242E+01 -.247E+01   0.170E+01 0.277E+01 0.256E+01   0.126E+00 -.261E+00 -.785E-01
   -.133E+01 -.532E+01 -.913E+01   0.134E+01 0.561E+01 0.103E+02   -.244E-01 -.318E+00 -.106E+01
   0.831E+00 -.205E+01 -.830E+00   -.103E+01 0.237E+01 0.103E+01   0.170E+00 -.238E+00 -.170E+00
   0.444E+00 0.887E+00 -.279E+01   -.605E+00 -.794E+00 0.293E+01   0.146E+00 -.112E+00 -.113E+00
   0.323E+01 -.359E+01 -.742E+00   -.362E+01 0.402E+01 0.114E+01   0.338E+00 -.381E+00 -.342E+00
   0.742E+00 -.359E+01 -.323E+01   -.114E+01 0.402E+01 0.362E+01   0.342E+00 -.381E+00 -.338E+00
   0.963E+01 0.288E+01 -.963E+01   -.111E+02 -.192E+01 0.111E+02   0.139E+01 -.957E+00 -.139E+01
   0.207E+01 -.192E+01 -.207E+01   -.236E+01 0.207E+01 0.236E+01   0.260E+00 -.193E+00 -.260E+00
   0.110E-02 0.154E+01 -.543E-03   -.913E-03 -.189E+01 0.717E-03   -.620E-03 0.198E+00 -.340E-03
   0.131E+01 0.186E+01 -.485E+00   -.149E+01 -.219E+01 0.632E+00   0.118E+00 0.252E+00 -.180E+00
   0.504E+00 0.139E+01 0.502E+00   -.447E+00 -.166E+01 -.446E+00   -.144E+00 0.287E-01 -.143E+00
   -.485E+00 0.186E+01 0.131E+01   0.631E+00 -.219E+01 -.149E+01   -.180E+00 0.252E+00 0.119E+00
   0.318E+01 -.183E+01 0.319E+01   -.331E+01 0.127E+01 -.332E+01   -.758E-01 0.465E+00 -.759E-01
   0.891E+00 -.181E+01 0.890E+00   -.928E+00 0.158E+01 -.927E+00   -.148E-01 0.134E+00 -.143E-01
   0.137E+01 0.119E+01 0.112E+01   -.147E+01 -.133E+01 -.108E+01   -.178E-01 0.173E+00 -.121E+00
   0.112E+01 0.119E+01 0.137E+01   -.108E+01 -.133E+01 -.146E+01   -.120E+00 0.173E+00 -.175E-01
   -.135E+01 0.330E+00 0.238E+01   0.150E+01 -.617E+00 -.259E+01   -.177E+00 0.110E+00 0.142E+00
   -.121E+01 0.208E+01 0.479E+00   0.135E+01 -.231E+01 -.474E+00   -.228E+00 0.167E+00 -.248E+00
   -.610E+01 0.116E+00 -.455E+01   0.651E+01 -.393E+00 0.545E+01   -.309E+00 -.221E-01 -.934E+00
   -.153E-02 0.364E+01 -.136E-02   0.902E-03 -.390E+01 0.109E-02   0.135E-03 0.183E+00 -.126E-03
[...]
   0.166E+02 0.492E+01 0.230E+01   -.175E+02 -.551E+01 -.168E+01   0.370E+00 0.638E+00 -.172E+00
   0.166E+01 0.200E+01 -.642E+00   -.195E+01 -.258E+01 0.530E+00   0.263E+00 0.384E+00 0.207E+00
   0.353E+00 0.834E+01 0.677E+01   -.182E+01 -.995E+01 -.782E+01   0.102E+01 0.121E+01 0.126E+01
   0.500E+00 0.385E+01 0.131E+01   -.737E+00 -.422E+01 -.153E+01   0.141E+00 0.349E+00 0.270E+00
   -.657E+00 0.621E+00 -.224E+01   0.783E-01 -.824E+00 0.218E+01   0.746E+00 0.341E+00 0.309E+00
   -.351E+01 0.263E+01 -.351E+01   0.375E+01 -.337E+01 0.375E+01   0.148E+00 -.121E+00 0.149E+00
   0.121E+01 0.208E+01 -.478E+00   -.135E+01 -.231E+01 0.475E+00   0.230E+00 0.168E+00 0.249E+00
   -.502E+00 0.139E+01 -.504E+00   0.446E+00 -.166E+01 0.447E+00   0.143E+00 0.284E-01 0.143E+00
   -.479E+00 0.208E+01 0.121E+01   0.474E+00 -.231E+01 -.135E+01   0.248E+00 0.167E+00 0.229E+00
   -.889E+00 -.181E+01 -.892E+00   0.927E+00 0.158E+01 0.928E+00   0.143E-01 0.134E+00 0.150E-01
   -.319E+01 -.183E+01 -.318E+01   0.331E+01 0.127E+01 0.331E+01   0.767E-01 0.464E+00 0.739E-01
   -.112E+01 0.119E+01 -.137E+01   0.108E+01 -.133E+01 0.146E+01   0.120E+00 0.173E+00 0.180E-01
   -.137E+01 0.119E+01 -.112E+01   0.146E+01 -.133E+01 0.108E+01   0.170E-01 0.174E+00 0.120E+00
   -.161E-01 -.654E+02 0.545E-02   0.360E-02 0.673E+02 -.409E-02   0.817E-02 0.544E+00 -.230E-02
   -.948E-02 0.153E+01 0.527E-02   -.567E-12 -.767E-12 0.783E-12   -.116E-01 0.578E+00 0.963E-02

 POSITION                                       TOTAL-FORCE (eV/Angst)
      0.00000      0.00261     10.63500         0.000351      0.034520      0.000203
     10.63125      1.77569      1.77164        -0.003095      0.100938     -0.003769
      1.76885      0.00182      1.76885        -0.062675      0.081321     -0.063279
      1.77164      1.77569     10.63125        -0.003265      0.101173     -0.003334
      2.65206      0.89015      2.65207        -0.077207      0.222809     -0.076683
      0.88436      0.88984      0.88436        -0.025111      0.085301     -0.026051
      0.87982      2.66213      2.65543        -0.001049      0.115897      0.008573
      2.65543      2.66213      0.87982         0.008750      0.116711     -0.002014
      3.54437      0.00434     10.63151        -0.043865      0.079408     -0.028962
      3.54028      1.76920      1.76038         0.020488      0.187680     -0.017927
      5.31444      0.01533      1.75962         0.117876      0.146349     -0.122387
      5.31750      1.77356     10.63500        -0.000549      0.186798      0.000429
      6.20281      0.89146      2.65618         0.051020      0.242329     -0.060904
      4.42986      0.89137      0.87720        -0.052475      0.176355     -0.058398
      4.42389      2.64541      2.64172        -0.037851      0.235425      0.016413
      6.20191      2.65593      0.88123        -0.022345      0.144208      0.011319
      7.09063      0.00434      0.00349         0.045425      0.079981      0.028254
      7.08923      1.77669      1.77345         0.018460      0.180455     -0.027978
      8.86007      0.00340      1.77493         0.037835      0.050595     -0.037643
      8.86336      1.77569      0.00375         0.003661      0.101646      0.003187
      9.74543      0.88981      2.65896        -0.001425      0.104705     -0.028857
      7.97604      0.88981      0.88957         0.028741      0.105160      0.001612
      7.97275      2.66390      2.66225        -0.027997      0.162158      0.025947
      9.74678      2.66322      0.88822        -0.008600      0.088832      0.008891
      0.00000      3.54810     10.63500         0.000172      0.051776     -0.000007
     10.62623      5.32153      1.76944        -0.026905     -0.025093      0.008785
      1.76413      3.54667      1.76413         0.027426      0.074677      0.026824
      1.76944      5.32153     10.62623         0.008907     -0.024896     -0.027329
      2.64505      4.42959      2.64505         0.096161     -0.015102      0.094750
      0.88158      4.43516      0.88158         0.009220      0.015122      0.008689
      0.87286      6.20750      2.64824        -0.042171     -0.179607     -0.001083
      2.64824      6.20750      0.87286        -0.001561     -0.180868     -0.041948
      3.54369      3.54830     10.62947         0.033188      0.071455     -0.010673
      3.52571      5.32298      1.75411         0.033068     -0.111767     -0.022033
      5.31667      3.53272      1.75726         0.053773      0.125841      0.077675
      5.31750      5.32192     10.63500        -0.000389     -0.087995     -0.001254
      6.19157      4.42358      2.65329        -0.113614      0.046497      0.073766
      4.42756      4.43318      0.87980         0.024669     -0.006561      0.042006
      4.42044      6.19511      2.64209         0.056868     -0.484273     -0.126002
      6.20178      6.20762      0.89177         0.026153     -0.181101      0.024281
      7.09131      3.54830      0.00553        -0.032690      0.072408      0.010409
      7.08187      5.32261      1.78408        -0.019000     -0.047066      0.108139
      8.85846      3.55018      1.77654        -0.023137      0.074217      0.023908
      8.86556      5.32153      0.00877        -0.008691     -0.024861      0.026942
      9.73992      4.43800      2.66182        -0.041101      0.025250      0.033795
      7.97318      4.43800      0.89508        -0.033870      0.025045      0.039568
      7.95011      6.21836      2.68489        -0.035191     -0.046069      0.034353
      9.74568      6.20903      0.88932        -0.016001     -0.060215      0.016665
      0.00000      7.09380     10.63500        -0.000390     -0.148178     -0.000234
     10.63005      8.86555      1.77211        -0.054914     -0.064950     -0.042326
      1.75844      7.09570      1.75844        -0.093230     -0.232507     -0.092953
      1.77211      8.86555     10.63004        -0.042390     -0.065233     -0.056081
      2.63866      7.98027      2.63866        -0.203566     -0.085668     -0.203186
      0.88005      7.98103      0.88005        -0.051485     -0.094440     -0.051199
      0.88029      9.75290      2.65620        -0.108784      0.033098     -0.084864
      2.65620      9.75290      0.88029        -0.085474      0.033998     -0.108794
      3.54446      7.09344     10.62917        -0.039290     -0.174518     -0.065857
      3.54186      8.87030      1.76357        -0.102245     -0.059833     -0.257074
      5.31629      7.09339      1.77483         0.078533     -0.303578     -0.080208
      5.31750      8.86719     10.63500        -0.000409     -0.074959     -0.000459
[...]
      5.31870      7.09339      8.86016        -0.080251     -0.306527      0.077745
      5.33215      8.89437      7.10771        -0.518563      0.073887      0.445155
      6.20437      7.97895      9.75064        -0.012360     -0.177225      0.105254
      4.43320      7.97828      7.96507        -0.390725     -0.353143      0.266502
      4.43158      9.75593      9.75081        -0.089550     -0.009841      0.062028
      6.20256      9.77596      7.99783         0.196376      0.145323      0.258251
      7.11168      7.11649      7.11169         0.393228     -0.870424      0.393438
      7.09314      8.87030      8.87142         0.102876     -0.059089      0.259903
      8.87656      7.09570      8.87656         0.093364     -0.234661      0.092369
      8.87142      8.87030      7.09314         0.257534     -0.059088      0.100346
      9.75495      7.98103      9.75495         0.051626     -0.094222      0.050576
      7.99634      7.98027      7.99634         0.202212     -0.087254      0.205012
      7.97880      9.75290      9.75471         0.084094      0.033620      0.108663
      9.75471      9.75290      7.97880         0.109182      0.033554      0.084786
      5.31750      6.43931      5.31750         0.001484      1.189071     -0.004483
    total drift:                               -0.016375      0.842829      0.012132

  FREE ENERGIE OF THE ION-ELECTRON SYSTEM (eV)
  free  energy   TOTEN  =     -2221.72706621 eV

  energy  without entropy=    -2221.72706621  energy(sigma->0) =    -2221.72706621

 writing wavefunctions