 vasp.6.2.1 16May21 (build Sep 27 2021 21:11:04) gamma-only

 executed on             LinuxIFC date 2023.04.23  14:10:19

 INCAR:
   GGA = PE
   ISTART = 1
   ISPIN = 2
   ENCUT = 370
   ENAUG = 740
   EDIFF = 1E-7
   IBRION = -1
   POTIM = 0.2
   ALGO = All
   NSW = 0
   EDIFFG = -1E-2
   ISMEAR = -2
   SIGMA = 0.01
   ISIF = 1
   LREAL = .FALSE.
   ISYM = 0
   NELECT = 866
   FERWE = 431*1.00 1*1.00 1*1.00 1*1.00 1*0.00 1000*0.00
   FERDO = 431*1.00 1*0.00 1*0.00 1*1.00 1*0.00 1000*0.00
   LDIAG = .TRUE.
   LHFCALC = .TRUE.
   HFSCREEN = 0.2
   NCORE = 8
   NELM = 60
   NWRITE = 2
   SYMPREC = 1.0e-8

 POTCAR:    PAW_PBE C 08Apr2002
 POTCAR:    PAW_PBE Pr 23Dec2003
|           W    W    AA    RRRRR   N    N  II  N    N   GGGG   !!!           |
|           W    W   A  A   R    R  NN   N  II  NN   N  G    G  !!!           |
|           W    W  A    A  R    R  N N  N  II  N N  N  G       !!!           |
|           W WW W  AAAAAA  RRRRR   N  N N  II  N  N N  G  GGG   !            |
|           WW  WW  A    A  R   R   N   NN  II  N   NN  G    G                |
|           W    W  A    A  R    R  N    N  II  N    N   GGGG   !!!           |
|     You use a magnetic or noncollinear calculation, but did not specify     |
|     the initial magnetic moment with the MAGMOM tag. Note that a            |
|     default of 1 will be used for all atoms. This ferromagnetic setup       |
|     may break the symmetry of the crystal, in particular it may rule        |
|     out finding an antiferromagnetic solution. Thence, we recommend         |
|     setting the initial magnetic moment manually or verifying carefully     |
|     that this magnetic setup is desired.                                    |

   TITEL  = PAW_PBE C 08Apr2002
   POMASS =   12.011; ZVAL   =    4.000    mass and valenz
   ENMAX  =  400.000; ENMIN  =  300.000 eV

   TITEL  = PAW_PBE Pr 23Dec2003
   POMASS =  140.907; ZVAL   =   13.000    mass and valenz
   ENMAX  =  272.941; ENMIN  =  204.706 eV

  PAW_PBE C 08Apr2002                   :
  PAW_PBE Pr 23Dec2003                  :

 POSCAR: prv2
  positions in direct lattice
  velocities in cartesian coordinates
 exchange correlation table for  LEXCH =        8
   RHO(1)=    0.500       N(1)  =     2000
   RHO(2)=  100.500       N(2)  =     4000

 ion  position               nearest neighbor table
   1  0.000  0.000  1.000- 162 1.53   6 1.53 196 1.54  72 1.54
   2  1.000  0.167  0.167-   7 1.53  24 1.53  21 1.53   6 1.54
   3  0.166  0.000  0.166-   5 1.53   6 1.53  56 1.54  55 1.54
   4  0.167  0.167  1.000-   8 1.53 148 1.53 146 1.53   6 1.54
   5  0.249  0.084  0.249-  81 1.53   3 1.53  10 1.53  76 1.53
   6  0.083  0.084  0.083-   1 1.53   3 1.53   4 1.54   2 1.54
   7  0.083  0.250  0.250-   2 1.53  76 1.53  27 1.54  97 1.54
   8  0.250  0.250  0.083-   4 1.53  10 1.53  27 1.54  33 1.54
   9  0.333  0.000  1.000- 204 1.53  14 1.53 146 1.53  56 1.53
  10  0.333  0.166  0.166-  15 1.53  14 1.53   8 1.53   5 1.53
  11  0.500  0.001  0.166-  63 1.52  14 1.53  64 1.53  13 1.54
  12  0.500  0.167  1.000-  14 1.53 154 1.53  16 1.53 156 1.53
  13  0.583  0.084  0.250-  84 1.53  18 1.53  11 1.54  89 1.54
  14  0.417  0.084  0.082-  11 1.53  12 1.53  10 1.53   9 1.53
  15  0.416  0.249  0.249-  10 1.53 105 1.53  35 1.54  84 1.54
  16  0.583  0.250  0.083-  35 1.52  12 1.53  41 1.53  18 1.53
  17  0.667  0.000  0.000-  64 1.53 154 1.53  22 1.53 212 1.53
  18  0.667  0.167  0.167-  13 1.53  22 1.53  16 1.53  23 1.54
  19  0.833  0.000  0.167-  21 1.53  22 1.53  72 1.53  71 1.54
  20  0.833  0.167  0.000- 164 1.53  24 1.53  22 1.53 162 1.54
  21  0.916  0.084  0.250-  19 1.53  73 1.53  92 1.53   2 1.53
  22  0.750  0.084  0.084-  19 1.53  17 1.53  18 1.53  20 1.53
  23  0.750  0.250  0.250-  43 1.53 111 1.53  92 1.54  18 1.54
  24  0.917  0.250  0.083-  20 1.53   2 1.53  25 1.54  43 1.54
  25  0.000  0.334  1.000-  30 1.53 186 1.53  24 1.54 148 1.54
  26  0.999  0.500  0.166-  31 1.53  48 1.53  45 1.54  30 1.54
  27  0.166  0.333  0.166-  29 1.53  30 1.53   7 1.54   8 1.54
  28  0.166  0.500  0.999-  32 1.53 172 1.53 170 1.54  30 1.54
  29  0.249  0.417  0.249-  27 1.53  34 1.54 100 1.54 105 1.54
  30  0.083  0.417  0.083-  25 1.53  27 1.53  28 1.54  26 1.54
  31  0.082  0.584  0.249- 100 1.53  26 1.53 119 1.54  51 1.54
  32  0.249  0.584  0.082-  34 1.53  28 1.53  57 1.54  51 1.54
  33  0.333  0.334  0.999-  38 1.53 156 1.53   8 1.54 170 1.54
  34  0.331  0.500  0.165-  32 1.53  39 1.53  29 1.54  38 1.54
  35  0.500  0.332  0.165-  16 1.52  15 1.54  38 1.54  37 1.54
  36  0.500  0.500  1.000- 178 1.53  38 1.53 180 1.54  40 1.54
  37  0.583  0.416  0.250- 108 1.48  42 1.53 111 1.54  35 1.54
  38  0.416  0.417  0.083-  33 1.53  36 1.53  34 1.54  35 1.54
  39  0.415  0.583  0.248- 108 1.51  34 1.53  59 1.54 127 1.56
  40  0.583  0.584  0.084-  59 1.53  42 1.53  65 1.54  36 1.54
  41  0.667  0.334  0.001- 178 1.53  16 1.53 164 1.54  46 1.54
  42  0.666  0.501  0.168-  40 1.53  37 1.53  47 1.54  46 1.54
  43  0.833  0.334  0.167-  45 1.53  46 1.53  23 1.53  24 1.54
  44  0.834  0.500  0.001- 188 1.53  48 1.53  46 1.54 186 1.54
  45  0.916  0.417  0.250-  43 1.53  97 1.54  26 1.54 114 1.54
  46  0.750  0.417  0.084-  43 1.53  41 1.54  44 1.54  42 1.54
  47  0.748  0.585  0.252- 134 1.51  42 1.54 114 1.54  67 1.55
  48  0.916  0.584  0.084-  44 1.53  26 1.53  67 1.54  49 1.54
  49  0.000  0.667  1.000-  54 1.53 210 1.53  48 1.54 172 1.54
  50  1.000  0.834  0.167-  72 1.53  55 1.53  54 1.54  69 1.54
  51  0.165  0.667  0.165-  53 1.52  54 1.52  31 1.54  32 1.54
  52  0.167  0.834  1.000- 196 1.53  56 1.53  54 1.54 194 1.54
  53  0.248  0.751  0.248- 127 1.52  51 1.52 122 1.54  58 1.54
  54  0.083  0.750  0.083-  51 1.52  49 1.53  50 1.54  52 1.54
  55  0.083  0.917  0.250- 122 1.53  50 1.53  73 1.53   3 1.54
  56  0.250  0.917  0.083-  58 1.53  52 1.53   9 1.53   3 1.54
  57  0.333  0.667  0.999- 194 1.53 180 1.54  32 1.54  62 1.54
  58  0.333  0.834  0.166-  56 1.53  62 1.54  53 1.54  63 1.54
  59  0.500  0.667  0.167-  40 1.53  39 1.54  62 1.54  61 1.54
  60  0.500  0.834  1.000-  64 1.54 204 1.54  62 1.54 202 1.54
[...]
 200  0.500  0.667  0.833- 180 1.53 181 1.54 202 1.54 203 1.54
 201  0.501  0.836  0.668- 130 1.49 205 1.53 203 1.54 132 1.54
 202  0.583  0.750  0.917-  60 1.54 207 1.54  65 1.54 200 1.54
 203  0.417  0.750  0.749- 198 1.51 200 1.54 201 1.54 199 1.54
 204  0.417  0.917  0.917-   9 1.53 199 1.53 152 1.53  60 1.54
 205  0.583  0.919  0.752- 152 1.52 201 1.53 158 1.54 207 1.54
 206  0.669  0.669  0.669- 130 1.52 211 1.52 181 1.56 117 1.56 214 2.63
 207  0.667  0.834  0.834- 212 1.53 202 1.54 211 1.54 205 1.54
 208  0.835  0.667  0.835- 211 1.52 210 1.52 188 1.54 189 1.54
 209  0.834  0.834  0.667- 213 1.53 138 1.54 211 1.54 140 1.54
 210  0.917  0.750  0.917- 208 1.52  49 1.53  68 1.54 191 1.54
 211  0.752  0.751  0.752- 206 1.52 208 1.52 207 1.54 209 1.54
 212  0.750  0.917  0.917- 207 1.53  68 1.53  17 1.53 160 1.54
 213  0.917  0.917  0.750- 209 1.53 191 1.53 142 1.53 160 1.54
 214  0.500  0.608  0.500- 131 2.16 130 2.16 106 2.24 177 2.24 108 2.24 112 2.24 110 2.46 109 2.46
                           198 2.60 134 2.60 127 2.63 206 2.63

IMPORTANT INFORMATION: All symmetrisations will be switched off!
NOSYMM: (Re-)initialisation of all symmetry stuff for point group C_1.

                                     Primitive cell

  volume of cell :    1202.8529

  direct lattice vectors                    reciprocal lattice vectors
    10.635000229  0.000000000  0.000000000     0.094029147  0.000000000  0.000000000
     0.000000000 10.635000229  0.000000000     0.000000000  0.094029147  0.000000000
     0.000000000  0.000000000 10.635000229     0.000000000  0.000000000  0.094029147

  length of vectors
    10.635000229 10.635000229 10.635000229     0.094029147  0.094029147  0.094029147

  position of ions in fractional coordinates (direct lattice)
     0.000000117  0.000254303  0.999999877
     0.999638696  0.166937864  0.166560750
     0.166290329  0.000207534  0.166290215
     0.166560831  0.166937824  0.999638521
     0.249372238  0.083714037  0.249372263
     0.083142008  0.083680705  0.083141890
     0.082717931  0.250294866  0.249670573
     0.249670601  0.250294905  0.082717816
     0.333224428  0.000415627  0.999648256
     0.332823822  0.166416927  0.165576246
     0.499738051  0.001358124  0.165505821
     0.499999932  0.166875982  0.999999946
     0.583255624  0.083758461  0.249771372
     0.416518147  0.083859208  0.082498782
     0.416084532  0.248923634  0.248535390
     0.583236217  0.249836910  0.083016769
     0.666775549  0.000415688  0.000351568
     0.666616316  0.167015031  0.166783134
     0.833124154  0.000315378  0.166875849
     0.833439251  0.166937863  0.000361307
     0.916355399  0.083666734  0.249999127
     0.750000871  0.083666732  0.083644602
     0.749737033  0.250427471  0.250262968
     0.916500779  0.250399563  0.083499221
     0.000000062  0.333591273  0.999999943
     0.999183612  0.500326953  0.166382579
     0.165824760  0.333406357  0.165824712
     0.166382616  0.500326962  0.999183464
     0.248681245  0.416537805  0.248681319
     0.082893637  0.417021180  0.082893449
     0.082060778  0.583712532  0.249032928
     0.249032902  0.583712552  0.082060514
     0.333166177  0.333607730  0.999430768
     0.331485863  0.500266681  0.164789712
     0.499764827  0.332301025  0.165375466
     0.499999833  0.500364700  0.999999717
     0.582558577  0.416158090  0.249685785
     0.416304859  0.416772928  0.082695336
     0.415477780  0.582753914  0.248160996
     0.583177078  0.583648376  0.083754981
     0.666833679  0.333607799  0.000569006
     0.666017426  0.500556322  0.167637452
     0.832991723  0.333768305  0.167008283
     0.833617425  0.500326953  0.000816389
     0.915861457  0.417238202  0.250236159
     0.749763839  0.417238202  0.084138543
     0.747779001  0.584612898  0.252220995
     0.916394569  0.583818869  0.083605426
     0.000000105  0.667038219  0.999999893
     0.999528229  0.833649324  0.166584882
     0.165233012  0.667181414  0.165232922
     0.166585105  0.833649218  0.999527902
     0.247732512  0.750503103  0.247732667
     0.082691801  0.750461200  0.082691648
     0.082716695  0.917114077  0.249701236
     0.249701136  0.917114132  0.082716468
     0.333240733  0.666998704  0.999434925
     0.332916191  0.834074895  0.165698443
     0.499870462  0.666929004  0.166693531
     0.499999922  0.833754768  0.999999890
[...]
     0.500129045  0.666928944  0.833306039
     0.501188958  0.836158623  0.668485179
     0.583478021  0.750276663  0.916925254
     0.416861233  0.750077704  0.749093037
     0.416699078  0.917290795  0.916838409
     0.583382849  0.919114521  0.752038100
     0.669349549  0.669040520  0.669349977
     0.667083782  0.834074974  0.834301515
     0.834767079  0.667181417  0.834766983
     0.834301552  0.834074897  0.667083801
     0.917308347  0.750461200  0.917308195
     0.752267329  0.750503103  0.752267486
     0.750298759  0.917114073  0.917283300
     0.917283519  0.917114129  0.750298853
     0.499999122  0.608151260  0.500000875

  ion indices of the primitive-cell ions
[...]
[...]
    634      20.9912      0.00000
    635      21.0000      0.00000
    636      21.0263      0.00000
    637      21.0558      0.00000
    638      21.1024      0.00000
    639      21.1393      0.00000
    640      21.1937      0.00000
    641      21.1954      0.00000
    642      21.2670      0.00000
    643      21.3729      0.00000
    644      21.4892      0.00000
    645      21.5549      0.00000
    646      21.7956      0.00000
    647      21.9803      0.00000
    648      22.0262      0.00000

 soft charge-density along one line, spin component           1
         0         1         2         3         4         5         6         7         8         9
 total charge-density along one line

 soft charge-density along one line, spin component           2
         0         1         2         3         4         5         6         7         8         9
 total charge-density along one line

------------------------ aborting loop because EDIFF is reached ----------------------------------------

 only isotrope contributions calculated
  for stress because ISIF=1 (only pressure is correct)

  FORCE on cell =-STRESS in cart. coord.  units (eV):
  Direction    XX          YY          ZZ          XY          YZ          ZX
  Alpha Z  3287.54863  3287.54863  3287.54863
  Ewald  -12889.78067-12806.09500-12889.78064     0.00463    -0.00456    41.22174
  Hartree   957.67061   994.76319   957.66958     1.21668     1.21499    29.73928
  E(xc)   -2518.39397 -2518.34317 -2518.39400    -0.00592    -0.00591    -0.03458
  Local   -1157.68718 -1276.03900 -1157.68762    -6.58952    -6.57881   -80.60533
  n-local  -625.97865  -625.97865  -625.97865     0.00000     0.00000     0.00000
  augment   -77.39195   -77.39195   -77.39195     0.00000     0.00000     0.00000
  Kinetic 13885.51228 13895.56448 13885.51451     7.72203     7.71954    28.64130
  Fock     -864.87307  -863.37368  -864.87388    -0.10699    -0.10673     1.04049
  Total      -3.37396    10.65484    -3.37402     2.24092     2.23852    20.00290
  in kB      -4.49406    14.19204    -4.49413     2.98487     2.98167    26.64348

 VOLUME and BASIS-vectors are now :
  energy-cutoff  :      370.00
  volume of cell :     1202.85
      direct lattice vectors                 reciprocal lattice vectors
    10.635000229  0.000000000  0.000000000     0.094029147  0.000000000  0.000000000
     0.000000000 10.635000229  0.000000000     0.000000000  0.094029147  0.000000000
     0.000000000  0.000000000 10.635000229     0.000000000  0.000000000  0.094029147

  length of vectors
    10.635000229 10.635000229 10.635000229     0.094029147  0.094029147  0.094029147

 FORCES acting on ions:
    Electron-Ion                     Ewald-Force                    Non-Local-Force
   0.127E+00 0.133E+01 0.127E+00   -.542E-03 -.133E+01 0.542E-03   0.122E-01 0.662E-01 0.120E-01
   0.136E+01 0.432E+00 0.102E+01   -.103E+01 -.286E+00 -.837E+00   0.369E-01 0.106E-01 -.329E-01
   0.101E+01 0.173E+01 0.101E+01   -.830E+00 -.160E+01 -.830E+00   -.734E-01 0.105E+00 -.733E-01
   0.102E+01 0.432E+00 0.135E+01   -.838E+00 -.286E+00 -.103E+01   -.329E-01 0.106E-01 0.368E-01
   0.105E+01 0.913E+00 0.105E+01   -.726E+00 -.290E+00 -.726E+00   -.136E+00 0.109E+00 -.136E+00
   0.889E+00 -.952E-01 0.889E+00   -.630E+00 0.246E+00 -.630E+00   -.383E-01 0.436E-02 -.384E-01
   0.230E+01 -.104E+01 0.108E+01   -.145E+01 0.155E+01 -.679E+00   0.394E-02 -.668E-01 -.107E+00
   0.108E+01 -.104E+01 0.230E+01   -.679E+00 0.155E+01 -.145E+01   -.107E+00 -.670E-01 0.398E-02
   0.134E+01 0.202E+01 0.124E+01   -.134E+01 -.193E+01 -.101E+01   -.868E-01 0.474E-01 -.361E-01
   0.178E+01 0.175E+01 0.198E+01   -.164E+01 -.938E+00 -.133E+01   -.432E-01 0.875E-01 -.872E-02
   -.392E+01 0.169E+01 0.697E-01   0.349E+01 -.143E+01 0.218E+00   0.162E+00 0.222E+00 -.224E+00
   -.192E+00 -.867E+00 0.714E+00   0.460E-03 0.932E+00 0.454E-03   -.908E-02 -.136E-01 0.268E-01
   -.229E+01 0.211E+01 -.133E+01   0.192E+01 -.175E+01 0.139E+01   0.372E-02 0.153E+00 -.668E-01
   0.935E+00 0.116E+01 0.114E+01   -.904E+00 -.822E+00 -.763E+00   -.131E+00 0.562E-01 -.288E-01
   -.439E+01 0.255E+01 0.121E+01   0.411E+01 -.600E+00 -.453E+00   -.160E+00 -.143E+00 -.194E-01
   -.370E+01 -.126E+01 0.222E+00   0.298E+01 0.173E+01 0.778E+00   0.880E-01 -.101E+00 -.442E-01
   -.153E+01 0.191E+01 -.103E+01   0.134E+01 -.193E+01 0.101E+01   0.115E+00 0.485E-01 0.475E-01
   -.219E+01 -.901E+00 -.107E+01   0.167E+01 0.135E+01 0.137E+01   0.375E-01 -.607E-01 -.107E+00
   0.687E+00 0.195E+01 -.524E+00   -.669E+00 -.189E+01 0.669E+00   0.106E+00 0.924E-01 -.969E-01
   -.806E+00 0.212E+00 -.714E+00   0.837E+00 -.286E+00 0.103E+01   0.639E-01 -.107E-01 0.699E-02
   0.127E+01 0.292E+00 0.946E+00   -.112E+01 -.257E+00 -.866E+00   0.586E-01 0.839E-02 -.885E-01
   -.101E+01 0.329E+00 -.929E+00   0.866E+00 -.257E+00 0.112E+01   0.714E-01 0.130E-01 -.298E-01
   -.942E-01 -.303E+01 -.799E+00   -.557E+00 0.319E+01 0.557E+00   0.148E+00 -.176E+00 -.172E+00
   0.881E+00 -.174E+01 -.392E+00   -.697E+00 0.182E+01 0.697E+00   0.703E-01 -.928E-01 -.468E-01
   0.373E+00 0.411E+00 0.372E+00   -.452E-03 -.393E+00 0.452E-03   0.274E-01 -.335E-01 0.275E-01
   0.361E+01 0.807E+00 -.284E+00   -.289E+01 -.898E+00 0.729E+00   0.716E-01 -.265E-01 -.115E+00
   0.292E+01 0.785E+00 0.292E+01   -.208E+01 -.378E+00 -.208E+01   0.225E-01 0.329E-03 0.227E-01
   -.283E+00 0.808E+00 0.361E+01   0.728E+00 -.898E+00 -.288E+01   -.115E+00 -.266E-01 0.717E-01
   0.281E+01 -.176E+01 0.281E+01   -.105E+01 0.249E+01 -.105E+01   -.947E-01 -.262E+00 -.946E-01
   0.121E+01 -.203E+01 0.121E+01   -.593E+00 0.220E+01 -.592E+00   0.279E-02 -.127E+00 0.267E-02
   0.366E+01 -.290E+01 -.317E+00   -.247E+01 0.234E+01 0.826E+00   -.501E-01 -.220E-01 -.121E+00
   -.318E+00 -.290E+01 0.366E+01   0.827E+00 0.234E+01 -.247E+01   -.121E+00 -.223E-01 -.501E-01
   0.114E+01 -.228E+01 0.365E+01   -.125E+01 0.250E+01 -.251E+01   -.622E-01 -.874E-01 0.125E+00
   0.117E+01 -.111E+01 0.616E+01   0.626E-01 0.134E+01 -.373E+01   -.312E+00 -.449E+00 -.257E+00
   -.286E+01 -.129E+01 0.248E+01   0.285E+01 0.299E+01 -.404E+00   -.521E+00 -.415E+00 -.386E+00
   -.456E+00 -.302E+01 0.184E+01   0.630E-03 0.306E+01 0.139E-02   -.533E-01 -.150E+00 0.858E-01
   -.191E+02 -.868E+01 -.444E+01   0.156E+02 0.101E+02 0.564E+01   -.360E+00 -.419E+00 -.425E+00
   -.179E+01 -.253E+01 0.349E+01   0.178E+01 0.286E+01 -.112E+01   -.114E+00 -.888E-01 -.113E+00
   -.778E+01 -.130E+02 0.615E+01   0.856E+01 0.962E+01 -.443E+01   -.409E+00 -.201E+00 0.119E+00
   -.263E+01 -.143E+01 -.294E+01   0.167E+01 0.861E+00 0.429E+01   0.329E-01 -.849E-02 -.176E+00
   -.165E+01 -.250E+01 -.133E+01   0.125E+01 0.250E+01 0.252E+01   0.559E-01 -.129E+00 0.593E-02
   -.223E+01 -.563E+01 -.957E+01   0.619E+00 0.529E+01 0.106E+02   -.648E-01 -.183E+00 -.529E+00
   0.117E+01 -.228E+01 -.118E+01   -.129E+01 0.232E+01 0.129E+01   0.847E-01 -.906E-01 -.835E-01
   0.867E+00 0.939E+00 -.233E+01   -.729E+00 -.898E+00 0.289E+01   0.110E+00 -.429E-01 -.269E-02
   0.429E+01 -.363E+01 -.152E+01   -.381E+01 0.381E+01 0.146E+01   0.232E+00 -.206E+00 -.220E+00
   0.920E+00 -.381E+01 -.308E+01   -.146E+01 0.381E+01 0.381E+01   0.168E+00 -.160E+00 -.136E+00
   0.105E+02 0.164E+01 -.116E+02   -.115E+02 -.223E+01 0.115E+02   0.637E+00 -.588E+00 -.717E+00
   0.265E+01 -.184E+01 -.209E+01   -.237E+01 0.172E+01 0.237E+01   0.824E-01 -.118E+00 -.239E-01
   0.295E+00 0.228E+01 0.294E+00   -.518E-03 -.223E+01 0.514E-03   0.605E-02 0.693E-01 0.587E-02
   0.179E+01 0.195E+01 -.673E+00   -.152E+01 -.203E+01 0.829E+00   0.352E-02 0.105E+00 -.100E+00
   0.132E+01 0.173E+01 0.132E+01   -.602E+00 -.230E+01 -.602E+00   -.169E+00 -.114E+00 -.169E+00
   -.673E+00 0.195E+01 0.179E+01   0.828E+00 -.203E+01 -.152E+01   -.100E+00 0.105E+00 0.348E-02
   0.337E+01 -.313E+01 0.337E+01   -.324E+01 0.181E+01 -.324E+01   -.111E+00 0.203E+00 -.111E+00
   0.122E+01 -.190E+01 0.122E+01   -.915E+00 0.163E+01 -.915E+00   -.398E-01 0.551E-01 -.398E-01
   0.167E+01 0.807E+00 0.906E+00   -.144E+01 -.894E+00 -.774E+00   -.814E-01 0.104E+00 -.120E+00
   0.905E+00 0.807E+00 0.167E+01   -.774E+00 -.894E+00 -.144E+01   -.120E+00 0.104E+00 -.814E-01
   -.163E+01 0.438E+00 0.361E+01   0.172E+01 -.754E+00 -.274E+01   -.153E+00 0.854E-02 0.789E-01
   -.183E+01 0.156E+01 0.806E+00   0.188E+01 -.194E+01 -.427E+00   -.212E+00 0.285E-01 -.350E+00
   -.742E+01 -.788E+00 -.441E+01   0.676E+01 -.714E+00 0.561E+01   -.225E+00 -.202E+00 -.501E+00
   -.998E-01 0.345E+01 0.240E-02   0.820E-03 -.354E+01 0.996E-03   -.276E-01 0.900E-01 0.102E-01
[...]
   0.186E+02 0.451E+01 0.110E+01   -.172E+02 -.482E+01 -.208E+01   0.177E+00 0.361E+00 0.255E+00
   0.195E+01 0.275E+01 -.513E+00   -.223E+01 -.243E+01 0.432E+00   0.128E+00 0.182E+00 0.190E+00
   0.261E+01 0.109E+02 0.709E+01   -.194E+01 -.102E+02 -.775E+01   0.431E+00 0.386E+00 0.680E+00
   0.684E+00 0.382E+01 0.148E+01   -.556E+00 -.385E+01 -.156E+01   0.217E-01 0.897E-01 0.882E-01
   -.580E+00 -.421E+00 -.298E+01   -.264E+00 -.479E+00 0.195E+01   0.648E+00 0.468E+00 0.515E+00
   -.416E+01 0.828E+01 -.416E+01   0.384E+01 -.462E+01 0.384E+01   -.140E+00 -.298E+00 -.140E+00
   0.150E+01 0.215E+01 -.126E+01   -.188E+01 -.194E+01 0.427E+00   0.181E+00 0.879E-01 0.340E+00
   -.472E+00 0.303E+01 -.473E+00   0.602E+00 -.230E+01 0.602E+00   0.171E+00 -.523E-01 0.170E+00
   -.126E+01 0.215E+01 0.150E+01   0.427E+00 -.194E+01 -.188E+01   0.340E+00 0.877E-01 0.181E+00
   -.880E+00 -.157E+01 -.881E+00   0.915E+00 0.163E+01 0.916E+00   0.733E-01 0.764E-01 0.734E-01
   -.376E+01 -.125E+01 -.375E+01   0.324E+01 0.181E+01 0.324E+01   0.162E+00 0.335E+00 0.162E+00
   -.983E+00 0.796E+00 -.164E+01   0.774E+00 -.894E+00 0.144E+01   0.111E+00 0.945E-01 0.815E-01
   -.164E+01 0.797E+00 -.983E+00   0.144E+01 -.894E+00 0.774E+00   0.815E-01 0.942E-01 0.110E+00
   -.766E+01 -.532E+02 -.765E+01   0.629E-02 0.546E+02 -.617E-02   -.106E+00 -.146E+01 -.104E+00
   0.774E+01 0.233E+01 0.773E+01   0.368E-12 0.115E-11 -.122E-11   -.363E+01 -.331E+00 -.364E+01

 POSITION                                       TOTAL-FORCE (eV/Angst)
      0.00000      0.00270     10.63500         0.121813      0.064564      0.122113
     10.63116      1.77538      1.77137         0.350210      0.150144      0.132492
      1.76850      0.00221      1.76850         0.089090      0.236229      0.089750
      1.77137      1.77538     10.63116         0.132094      0.150224      0.349958
      2.65207      0.89030      2.65207         0.160106      0.728509      0.160766
      0.88422      0.88994      0.88421         0.200733      0.145420      0.201097
      0.87971      2.66189      2.65525         0.832886      0.427679      0.267362
      2.65525      2.66189      0.87970         0.266517      0.427687      0.833134
      3.54384      0.00442     10.63126        -0.108976      0.134364      0.177178
      3.53958      1.76984      1.76090         0.081091      0.894884      0.618763
      5.31471      0.01444      1.76015        -0.283402      0.482409      0.036692
      5.31750      1.77473     10.63500        -0.219348      0.042441      0.725762
      6.20292      0.89077      2.65632        -0.382582      0.518808     -0.025161
      4.42967      0.89184      0.87737        -0.122401      0.392250      0.325617
      4.42506      2.64730      2.64317        -0.464649      1.798185      0.715346
      6.20272      2.65702      0.88288        -0.654775      0.358092      0.938950
      7.09116      0.00442      0.00374        -0.082624      0.021417      0.013558
      7.08946      1.77620      1.77374        -0.507809      0.375762      0.170117
      8.86028      0.00335      1.77472         0.112011      0.151336      0.025866
      8.86363      1.77538      0.00384         0.080661     -0.092736      0.303163
      9.74544      0.88980      2.65874         0.189974      0.034106     -0.029804
      7.97626      0.88980      0.88956        -0.090597      0.076402      0.144655
      7.97345      2.66330      2.66155        -0.514498     -0.032888     -0.441611
      9.74699      2.66300      0.88801         0.240638     -0.021499      0.237567
      0.00000      3.54774     10.63500         0.384202     -0.022733      0.384336
     10.62632      5.32098      1.76948         0.782625     -0.123891      0.307786
      1.76355      3.54578      1.76355         0.852098      0.401826      0.852433
      1.76948      5.32098     10.62632         0.307683     -0.123704      0.782402
      2.64473      4.42988      2.64473         1.640352      0.445529      1.640592
      0.88157      4.43502      0.88157         0.597750      0.025372      0.598148
      0.87272      6.20778      2.64847         1.122886     -0.602322      0.365873
      2.64846      6.20778      0.87271         0.365319     -0.602505      1.122911
      3.54322      3.54792     10.62895        -0.185938      0.115903      1.250298
      3.52535      5.32034      1.75254         0.892581     -0.244406      2.147464
      5.31500      3.53402      1.75877        -0.570198      1.257676      1.662712
      5.31750      5.32138     10.63500        -0.529838     -0.128344      1.917936
      6.19551      4.42584      2.65541        -3.879533      0.966185      0.728428
      4.42740      4.43238      0.87946        -0.151060      0.230547      2.239803
      4.41861      6.19759      2.63919         0.329210     -3.594680      1.828505
      6.20209      6.20710      0.89073        -0.942454     -0.583583      1.155529
      7.09178      3.54792      0.00605        -0.358403     -0.147143      1.173700
      7.08310      5.32342      1.78282        -1.702469     -0.537406      0.509041
      8.85887      3.54963      1.77613        -0.046349     -0.062543      0.002888
      8.86552      5.32098      0.00868         0.235741     -0.008296      0.538435
      9.74019      4.43733      2.66126         0.705166     -0.048250     -0.303693
      7.97374      4.43733      0.89481        -0.385217     -0.181041      0.570529
      7.95263      6.21736      2.68237        -0.372592     -1.213006     -0.816377
      9.74586      6.20891      0.88914         0.348955     -0.257791      0.230706
      0.00000      7.09395     10.63500         0.283251      0.119660      0.283267
     10.62998      8.86586      1.77163         0.262703      0.016954      0.031710
      1.75725      7.09547      1.75725         0.522925     -0.693505      0.523449
      1.77163      8.86586     10.62998         0.030977      0.016879      0.262621
      2.63464      7.98160      2.63464         0.002155     -1.122354      0.002705
      0.87943      7.98116      0.87943         0.246215     -0.224095      0.246445
      0.87969      9.75351      2.65557         0.122890      0.011994     -0.011370
      2.65557      9.75351      0.87969        -0.011683      0.011946      0.123205
      3.54402      7.09353     10.62899        -0.085858     -0.315985      0.931406
      3.54056      8.87039      1.76220        -0.189336     -0.356349     -0.008292
      5.31612      7.09279      1.77279        -0.913237     -1.724992      0.654433
      5.31750      8.86698     10.63500        -0.145572      0.004587     -0.003694
[...]
      5.31887      7.09279      8.86221         0.016005      1.355977      0.758964
      5.33014      8.89255      7.10934         1.600148      0.062413     -0.726640
      6.20529      7.97919      9.75150        -0.162793      0.505743      0.101015
      4.43332      7.97708      7.96660         1.112370      1.127363      0.023758
      4.43159      9.75539      9.75058         0.133604      0.057213     -0.010748
      6.20428      9.77478      7.99793        -0.191118     -0.423078     -0.521473
      7.11853      7.11525      7.11854        -0.481010      3.347307     -0.481839
      7.09444      8.87039      8.87280        -0.207708      0.289881     -0.489683
      8.87775      7.09547      8.87775         0.290382      0.675286      0.290139
      8.87280      8.87039      7.09444        -0.489840      0.290001     -0.207962
      9.75557      7.98116      9.75557         0.092673      0.132956      0.092515
      8.00036      7.98160      8.00036        -0.371484      0.897568     -0.371409
      7.97943      9.75351      9.75531        -0.111684     -0.008132     -0.129076
      9.75531      9.75351      7.97943        -0.128910     -0.008195     -0.112131
      5.31749      6.46769      5.31751        -7.861804     -0.351173     -7.865157
    total drift:                                3.805841      1.805190      3.796557

  FREE ENERGIE OF THE ION-ELECTRON SYSTEM (eV)
  free  energy   TOTEN  =     -2234.15462695 eV

  energy  without entropy=    -2234.15462695  energy(sigma->0) =    -2234.15462695

 writing wavefunctions