 vasp.6.2.1 16May21 (build Sep 27 2021 21:11:04) gamma-only

 executed on             LinuxIFC date 2023.05.07  03:25:52

 INCAR:
   GGA = PE
   ISTART = 1
   ISPIN = 2
   ENCUT = 370
   ENAUG = 740
   EDIFF = 1E-5
   IBRION = 2
   POTIM = 0.2
   ALGO = All
   NSW = 0
   EDIFFG = -1E-2
   ISMEAR = 0
   SIGMA = 0.01
   ISIF = 1
   LREAL = .FALSE.
   ISYM = 0
   PREC = Accurate
   LHFCALC = .TRUE.
   HFSCREEN = 0.2
   NCORE = 8
   NELM = 60
   NWRITE = 2
   SYMPREC = 1.0e-8

 POTCAR:    PAW_PBE C 08Apr2002
 POTCAR:    PAW_PBE Pr 23Dec2003
|           W    W    AA    RRRRR   N    N  II  N    N   GGGG   !!!           |
|           W    W   A  A   R    R  NN   N  II  NN   N  G    G  !!!           |
|           W    W  A    A  R    R  N N  N  II  N N  N  G       !!!           |
|           W WW W  AAAAAA  RRRRR   N  N N  II  N  N N  G  GGG   !            |
|           WW  WW  A    A  R   R   N   NN  II  N   NN  G    G                |
|           W    W  A    A  R    R  N    N  II  N    N   GGGG   !!!           |
|     You use a magnetic or noncollinear calculation, but did not specify     |
|     the initial magnetic moment with the MAGMOM tag. Note that a            |
|     default of 1 will be used for all atoms. This ferromagnetic setup       |
|     may break the symmetry of the crystal, in particular it may rule        |
|     out finding an antiferromagnetic solution. Thence, we recommend         |
|     setting the initial magnetic moment manually or verifying carefully     |
|     that this magnetic setup is desired.                                    |

   TITEL  = PAW_PBE C 08Apr2002
   POMASS =   12.011; ZVAL   =    4.000    mass and valenz
   ENMAX  =  400.000; ENMIN  =  300.000 eV

   TITEL  = PAW_PBE Pr 23Dec2003
   POMASS =  141.000; ZVAL   =   13.000    mass and valenz
   ENMAX  =  272.941; ENMIN  =  204.706 eV

  PAW_PBE C 08Apr2002                   :
  PAW_PBE Pr 23Dec2003                  :

 POSCAR: 3D\Atomistic
  positions in direct lattice
  velocities in cartesian coordinates
 exchange correlation table for  LEXCH =        8
   RHO(1)=    0.500       N(1)  =     2000
   RHO(2)=  100.500       N(2)  =     4000

 ion  position               nearest neighbor table
   1  0.000  0.000  1.000-  72 1.53 194 1.53   6 1.54 160 1.54
   2  1.000  0.167  0.167-   7 1.53  21 1.53   6 1.54  24 1.54
   3  0.167  1.000  0.167-  55 1.53  56 1.53   5 1.53   6 1.54
   4  0.167  0.167  1.000-   8 1.53 144 1.53   6 1.54 146 1.54
   5  0.250  0.083  0.250-   3 1.53  10 1.54  76 1.54  81 1.54
   6  0.083  0.083  0.083-   4 1.54   2 1.54   1 1.54   3 1.54
   7  0.083  0.250  0.250-  27 1.53   2 1.53  97 1.54  76 1.54
   8  0.250  0.250  0.083-  27 1.53   4 1.53  33 1.54  10 1.54
   9  0.333  0.000  0.000-  14 1.53  56 1.54 202 1.54 144 1.54
  10  0.333  0.166  0.167-  14 1.53   5 1.54   8 1.54  15 1.54
  11  0.500  0.000  0.166-  14 1.53  13 1.53  64 1.53  63 1.55
  12  0.500  0.167  1.000- 152 1.53 154 1.53  14 1.53  16 1.53
  13  0.583  0.083  0.250-  89 1.53  11 1.53  84 1.54  18 1.54
  14  0.417  0.083  0.083-  11 1.53   9 1.53  10 1.53  12 1.53
  15  0.417  0.250  0.250- 105 1.53  35 1.53  84 1.54  10 1.54
  16  0.583  0.250  0.083-  35 1.53  41 1.53  18 1.53  12 1.53
  17  0.667  0.000  1.000- 152 1.53 210 1.54  22 1.54  64 1.54
  18  0.667  0.167  0.167-  16 1.53  23 1.54  22 1.54  13 1.54
  19  0.834  0.000  0.166-  72 1.53  21 1.53  22 1.53  71 1.54
  20  0.833  0.167  1.000-  22 1.53 162 1.54 160 1.54  24 1.54
  21  0.917  0.083  0.250-  19 1.53   2 1.53  73 1.54  92 1.54
  22  0.750  0.083  0.083-  19 1.53  20 1.53  17 1.54  18 1.54
  23  0.750  0.250  0.250-  43 1.53  18 1.54  92 1.54 111 1.54
  24  0.917  0.250  0.083-  20 1.54   2 1.54  25 1.54  43 1.54
  25  0.000  0.333  1.000-  30 1.53 184 1.53 146 1.54  24 1.54
  26  1.000  0.500  0.167-  48 1.53  31 1.53  45 1.54  30 1.54
  27  0.166  0.333  0.166-  30 1.53   7 1.53   8 1.53  29 1.54
  28  0.167  0.500  1.000- 170 1.53  32 1.54 168 1.54  30 1.54
  29  0.250  0.417  0.250- 105 1.53  34 1.53 100 1.53  27 1.54
  30  0.083  0.417  0.083-  27 1.53  25 1.53  26 1.54  28 1.54
  31  0.083  0.583  0.250- 100 1.53  51 1.53 119 1.53  26 1.53
  32  0.250  0.583  0.083-  34 1.53  51 1.53  57 1.53  28 1.54
  33  0.333  0.333  1.000- 154 1.53 168 1.54   8 1.54  38 1.54
  34  0.332  0.499  0.165-  32 1.53  38 1.53  29 1.53  39 1.57
  35  0.500  0.333  0.166-  16 1.53  15 1.53  38 1.53  37 1.55
  36  0.500  0.500  0.000- 176 1.54  38 1.54 178 1.54  40 1.54
  37  0.583  0.418  0.251- 108 1.50  42 1.53 111 1.54  35 1.55
  38  0.417  0.416  0.083-  34 1.53  35 1.53  36 1.54  33 1.54
  39  0.417  0.584  0.251- 108 1.50 127 1.50  59 1.54  34 1.57
  40  0.583  0.583  0.084-  59 1.53  42 1.53  36 1.54  65 1.54
  41  0.667  0.333  0.000-  16 1.53  46 1.54 162 1.54 176 1.54
  42  0.666  0.500  0.167-  40 1.53  47 1.53  37 1.53  46 1.54
  43  0.833  0.334  0.167-  45 1.53  46 1.53  23 1.53  24 1.54
  44  0.833  0.500  0.000-  48 1.53 186 1.54  46 1.54 184 1.54
  45  0.916  0.417  0.250-  43 1.53  97 1.54  26 1.54 114 1.54
  46  0.750  0.417  0.084-  43 1.53  41 1.54  44 1.54  42 1.54
  47  0.749  0.584  0.251- 132 1.49 114 1.53  42 1.53  67 1.55
  48  0.917  0.583  0.083-  67 1.53  26 1.53  44 1.53  49 1.53
  49  0.000  0.667  0.000- 208 1.53  54 1.53  48 1.53 170 1.53
  50  0.000  0.833  0.167-  54 1.53  69 1.53  55 1.54  72 1.54
  51  0.166  0.666  0.166-  54 1.53  32 1.53  31 1.53  53 1.55
  52  0.167  0.833  0.000-  54 1.53 192 1.54  56 1.54 194 1.54
  53  0.251  0.750  0.251- 127 1.49 122 1.53  58 1.53  51 1.55
  54  0.083  0.750  0.083-  51 1.53  50 1.53  52 1.53  49 1.53
  55  0.084  0.916  0.250-   3 1.53  73 1.54  50 1.54 122 1.54
  56  0.250  0.916  0.084-   3 1.53   9 1.54  52 1.54  58 1.54
  57  0.333  0.667  0.000- 192 1.53  32 1.53 178 1.54  62 1.54
  58  0.334  0.833  0.167-  62 1.53  53 1.53  63 1.53  56 1.54
  59  0.500  0.667  0.167-  40 1.53  62 1.53  61 1.54  39 1.54
  60  0.500  0.833  0.000-  64 1.54 202 1.54 200 1.54  62 1.54
[...]
 198  0.500  0.667  0.833- 200 1.53 178 1.53 179 1.54 201 1.54
 199  0.495  0.837  0.671- 201 1.50 130 1.50 203 1.50 212 2.57
 200  0.583  0.750  0.916- 198 1.53 205 1.53  60 1.54  65 1.54
 201  0.417  0.749  0.749- 199 1.50 196 1.50 198 1.54 197 1.57
 202  0.417  0.917  0.917- 197 1.53 150 1.53  60 1.54   9 1.54
 203  0.583  0.915  0.749- 199 1.50 205 1.53 156 1.54 150 1.55
 204  0.672  0.662  0.672- 209 1.49 117 1.50 179 1.50 212 2.59
 205  0.666  0.833  0.833- 200 1.53 209 1.53 203 1.53 210 1.54
 206  0.834  0.666  0.834- 208 1.53 186 1.53 187 1.53 209 1.55
 207  0.833  0.833  0.666- 136 1.53 209 1.53 138 1.53 211 1.54
 208  0.917  0.750  0.917- 206 1.53 189 1.53  68 1.53  49 1.53
 209  0.749  0.750  0.749- 204 1.49 207 1.53 205 1.53 206 1.55
 210  0.750  0.916  0.916- 158 1.53  17 1.54  68 1.54 205 1.54
 211  0.916  0.916  0.750- 158 1.53 140 1.54 189 1.54 207 1.54
 212  0.500  0.667  0.500- 129 2.56 108 2.56 199 2.57 175 2.57 128 2.57 106 2.57 133 2.57 112 2.57
                           127 2.58 196 2.58 132 2.59 204 2.59

IMPORTANT INFORMATION: All symmetrisations will be switched off!
NOSYMM: (Re-)initialisation of all symmetry stuff for point group C_1.

                                     Primitive cell

  volume of cell :    1202.8529

  direct lattice vectors                    reciprocal lattice vectors
    10.635000229  0.000000000  0.000000000     0.094029147  0.000000000  0.000000000
     0.000000000 10.635000229  0.000000000     0.000000000  0.094029147  0.000000000
     0.000000000  0.000000000 10.635000229     0.000000000  0.000000000  0.094029147

  length of vectors
    10.635000229 10.635000229 10.635000229     0.094029147  0.094029147  0.094029147

  position of ions in fractional coordinates (direct lattice)
     0.000000051  0.000033195  0.999999698
     0.999999913  0.166665100  0.166635710
     0.166958272  0.999770870  0.166946324
     0.166636809  0.166665143  0.999999502
     0.250364609  0.082836209  0.250356190
     0.083441269  0.083242710  0.083437612
     0.083298515  0.249925692  0.250056330
     0.250055904  0.249935197  0.083300963
     0.333238637  0.000091904  0.000377866
     0.333254052  0.166396541  0.166744498
     0.500125989  0.000281139  0.166365696
     0.499999945  0.166663455  0.999998839
     0.583197499  0.083264225  0.250055384
     0.416716966  0.083394479  0.083386366
     0.416798852  0.250053806  0.250048381
     0.583281581  0.249933730  0.083386440
     0.666762458  0.000090505  0.999625238
     0.666746584  0.166928154  0.166747065
     0.833708768  0.000333760  0.166300383
     0.833363029  0.166665308  0.999999639
     0.916702031  0.083403299  0.250057121
     0.749943519  0.083393746  0.083301779
     0.749634980  0.250493064  0.250357756
     0.916558703  0.250088443  0.083437193
     0.000000096  0.333299786  0.999999641
     0.999578594  0.499894818  0.166529276
     0.166290575  0.332997026  0.166298879
     0.166570416  0.499899640  0.999604472
     0.249742205  0.416767750  0.249811661
     0.083257862  0.416722336  0.083250805
     0.082931483  0.583381630  0.249683011
     0.249734977  0.583412271  0.082995187
     0.333238054  0.333239013  0.999624399
     0.332075171  0.499069955  0.165117450
     0.499871894  0.333048457  0.166364578
     0.499999680  0.500060190  0.000002147
     0.582663061  0.418132906  0.251202335
     0.416664706  0.416490318  0.083110011
     0.416692895  0.583980936  0.251092304
     0.583210176  0.583398797  0.083606476
     0.666762657  0.333240478  0.000375211
     0.666212187  0.500467767  0.167238746
     0.833044012  0.333559689  0.166945114
     0.833431365  0.499899880  0.000397589
     0.916235716  0.416844796  0.250219750
     0.749745377  0.416871825  0.083778113
     0.749100663  0.583644754  0.250963775
     0.916729427  0.583299722  0.083244529
     0.000000953  0.666668201  0.000000656
     0.000427492  0.833439537  0.166529009
     0.166135134  0.666499641  0.166138917
     0.166570040  0.833434987  0.000399678
     0.250904992  0.749688340  0.250964731
     0.083272989  0.750036088  0.083244567
     0.083769459  0.916487400  0.250221277
     0.250255382  0.916461821  0.083779122
     0.333419272  0.666668282  0.000003597
     0.333786207  0.832868107  0.167238951
     0.499997207  0.666664845  0.166646293
     0.499999952  0.833276002  0.000004541
[...]
     0.499996955  0.666673897  0.833367527
     0.495110414  0.836502609  0.671256219
     0.583210635  0.749939983  0.916400896
     0.416690314  0.749354374  0.748927700
     0.416664658  0.916841014  0.916895204
     0.582662910  0.915190213  0.748796245
     0.671997020  0.661519523  0.671684787
     0.666212869  0.832868352  0.832767624
     0.833870244  0.666497238  0.833865711
     0.832851046  0.832899143  0.666241044
     0.916729334  0.750036508  0.916756850
     0.749099895  0.749694624  0.749039886
     0.749744657  0.916461960  0.916223449
     0.916234530  0.916487749  0.749779484
     0.499797849  0.666688511  0.499853292

  ion indices of the primitive-cell ions
   primitive index   ion index
                 1           1
                 2           2
                 3           3
                 4           4
[...]

 eigenvalue-minimisations  :     0
 total energy-change (2. order) :-0.1624189E-03  (-0.1243856E-03)
 number of electron     857.0000013 magnetization      -1.0000004
 augmentation part       19.7780475 magnetization       1.3062634

 Free energy of the ion-electron system (eV)
  alpha Z        PSCENC =      3227.87990073
  Ewald energy   TEWEN  =    -38019.61083107
  -Hartree energ DENC   =     -2964.93026096
  -exchange      EXHF   =      1977.66577891
  -V(xc)+E(xc)   XCENC  =      2330.87074316
  PAW double counting   =     95010.57765098   -95114.86546333
  entropy T*S    EENTRO =        -0.00000000
  eigenvalues    EBANDS =      -627.17386375
  atomic energy  EATOM  =     31957.44289874
  free energy    TOTEN  =     -2222.14344659 eV

  energy without entropy =    -2222.14344659  energy(sigma->0) =    -2222.14344659
  exchange ACFDT corr.  =         0.00000000  see jH, gK, PRB 81, 115126

------------------------ aborting loop because hard stop was set ---------------------------------------

 only isotrope contributions calculated
  for stress because ISIF=1 (only pressure is correct)

  FORCE on cell =-STRESS in cart. coord.  units (eV):
  Direction    XX          YY          ZZ          XY          YZ          ZX
  Alpha Z  3227.87990  3227.87990  3227.87990
  Ewald  -12682.14875-12659.86533-12678.09346     0.47793     0.65053    -0.03710
  Hartree   983.54122   995.87262   985.53779     0.57429     0.21079    -0.01767
  E(xc)   -2488.09439 -2488.04193 -2488.09165     0.01195     0.00071    -0.00118
  Local   -1240.70665 -1271.88680 -1245.25571    -2.12569    -0.83175    -0.00466
  n-local  -602.80943  -602.80943  -602.80943     0.00000     0.00000     0.00000
  augment   -71.52149   -71.52149   -71.52149     0.00000     0.00000     0.00000
  Kinetic 13703.05310 13685.06672 13701.01602    -0.93280     0.01514     0.05500
  Fock     -856.87961  -857.10729  -855.86576    -2.23601     0.00715    -0.02815
  Total     -27.68612   -42.41303   -27.20381    -4.23034     0.05258    -0.03376
  in kB     -36.87739   -56.49335   -36.23495    -5.63473     0.07003    -0.04497

 VOLUME and BASIS-vectors are now :
  energy-cutoff  :      370.00
  volume of cell :     1202.85
      direct lattice vectors                 reciprocal lattice vectors
    10.635000229  0.000000000  0.000000000     0.094029147  0.000000000  0.000000000
     0.000000000 10.635000229  0.000000000     0.000000000  0.094029147  0.000000000
     0.000000000  0.000000000 10.635000229     0.000000000  0.000000000  0.094029147

  length of vectors
    10.635000229 10.635000229 10.635000229     0.094029147  0.094029147  0.094029147

 FORCES acting on ions:
    Electron-Ion                     Ewald-Force                    Non-Local-Force
   0.330E-01 0.919E+00 -.217E-01   -.162E-01 -.896E+00 -.119E-01   -.131E-01 -.324E-01 0.234E-01
   0.208E-01 -.874E-02 -.186E+01   -.203E-01 0.923E-02 0.185E+01   -.739E-03 0.618E-04 0.218E-01
   -.458E+01 0.324E+01 -.435E+01   0.464E+01 -.326E+01 0.439E+01   -.663E-01 0.316E-01 -.486E-01
   -.206E+01 -.202E-01 -.140E-01   0.206E+01 0.840E-02 -.154E-01   0.154E-01 0.915E-02 0.199E-01
   -.608E+01 0.524E+01 -.584E+01   0.619E+01 -.542E+01 0.597E+01   -.121E+00 0.146E+00 -.125E+00
   -.200E+01 0.143E+01 -.191E+01   0.205E+01 -.148E+01 0.195E+01   -.539E-01 0.505E-01 -.407E-01
   -.183E+01 -.985E+00 -.320E+01   0.182E+01 0.951E+00 0.329E+01   0.820E-02 0.181E-01 -.105E+00
   -.346E+01 -.102E+01 -.172E+01   0.354E+01 0.991E+00 0.170E+01   -.958E-01 0.201E-01 0.182E-01
   -.254E+01 0.323E+01 -.133E+01   0.261E+01 -.327E+01 0.135E+01   -.210E-01 0.405E-01 -.345E-01
   -.282E+01 0.103E+01 -.480E+01   0.284E+01 -.111E+01 0.482E+01   0.141E-01 0.101E+00 -.237E-01
   0.329E+01 0.703E+01 -.827E+01   -.362E+01 -.721E+01 0.850E+01   0.323E+00 0.165E+00 -.217E+00
   -.225E-01 -.140E-01 0.108E-01   0.223E-01 0.139E-01 -.172E-01   -.215E-03 0.116E-02 0.727E-03
   0.386E+01 0.301E+01 -.717E+01   -.394E+01 -.305E+01 0.717E+01   0.122E+00 0.580E-01 -.163E-01
   -.108E+01 0.271E+01 -.360E+01   0.111E+01 -.274E+01 0.361E+01   -.504E-01 0.211E-01 -.477E-02
   -.393E+01 -.302E+01 -.715E+01   0.402E+01 0.305E+01 0.716E+01   -.120E+00 -.560E-01 -.151E-01
   0.104E+01 -.274E+01 -.360E+01   -.106E+01 0.276E+01 0.361E+01   0.516E-01 -.200E-01 -.420E-02
   0.264E+01 0.330E+01 0.124E+01   -.261E+01 -.328E+01 -.137E+01   -.200E-01 -.144E-01 0.143E+00
   0.282E+01 -.105E+01 -.482E+01   -.284E+01 0.114E+01 0.484E+01   -.139E-01 -.100E+00 -.226E-01
   0.325E+01 0.188E+01 -.299E+01   -.317E+01 -.178E+01 0.291E+01   -.102E+00 -.129E+00 0.100E+00
   0.208E+01 0.511E-03 -.185E-01   -.208E+01 0.124E-01 -.120E-01   -.160E-01 -.900E-02 0.207E-01
   0.187E+01 0.969E+00 -.321E+01   -.186E+01 -.936E+00 0.329E+01   -.105E-01 -.174E-01 -.106E+00
   0.346E+01 0.101E+01 -.173E+01   -.354E+01 -.976E+00 0.171E+01   0.959E-01 -.203E-01 0.191E-01
   0.609E+01 -.528E+01 -.586E+01   -.621E+01 0.545E+01 0.599E+01   0.120E+00 -.144E+00 -.124E+00
   0.203E+01 -.145E+01 -.191E+01   -.208E+01 0.149E+01 0.195E+01   0.527E-01 -.500E-01 -.400E-01
   0.255E-02 -.926E+00 -.199E-01   -.189E-01 0.904E+00 -.135E-01   0.121E-01 0.325E-01 0.231E-01
   0.140E+01 -.124E+01 -.412E+01   -.148E+01 0.124E+01 0.414E+01   0.882E-01 0.372E-01 -.124E-01
   -.322E+01 -.188E+01 -.298E+01   0.314E+01 0.178E+01 0.289E+01   0.100E+00 0.128E+00 0.985E-01
   -.449E+01 -.133E+01 0.126E+01   0.447E+01 0.128E+01 -.141E+01   0.138E-01 0.504E-01 0.158E+00
   -.710E+01 -.516E+01 -.664E+01   0.720E+01 0.528E+01 0.685E+01   -.147E+00 -.193E+00 -.247E+00
   -.166E+01 -.212E+01 -.151E+01   0.165E+01 0.218E+01 0.149E+01   0.617E-02 -.873E-01 0.193E-01
   -.342E+01 -.383E+01 -.579E+01   0.342E+01 0.386E+01 0.581E+01   -.402E-01 -.801E-01 -.382E-01
   -.629E+01 -.368E+01 -.332E+01   0.627E+01 0.380E+01 0.326E+01   0.215E-01 -.116E+00 0.400E-01
   -.265E+01 -.331E+01 0.125E+01   0.262E+01 0.329E+01 -.138E+01   0.196E-01 0.139E-01 0.142E+00
   -.987E+01 -.792E+01 -.901E+01   0.979E+01 0.782E+01 0.888E+01   0.402E-01 0.101E+00 0.204E+00
   -.336E+01 -.705E+01 -.828E+01   0.369E+01 0.722E+01 0.850E+01   -.321E+00 -.164E+00 -.215E+00
   -.336E-01 -.477E+01 -.789E-01   0.267E-01 0.486E+01 -.224E-01   -.260E-03 -.898E-01 0.816E-01
   -.317E+01 -.183E+02 -.202E+02   0.325E+01 0.186E+02 0.206E+02   -.803E-01 -.359E+00 -.449E+00
   -.409E+01 -.516E+01 -.381E+01   0.429E+01 0.509E+01 0.379E+01   -.155E+00 0.805E-01 0.141E-01
   -.166E+02 -.167E+02 -.197E+02   0.171E+02 0.167E+02 0.195E+02   -.224E+00 0.648E-01 0.963E-01
   0.297E+01 -.240E+01 -.956E+01   -.291E+01 0.233E+01 0.960E+01   -.497E-01 0.662E-01 -.412E-01
   0.253E+01 -.325E+01 -.133E+01   -.260E+01 0.329E+01 0.134E+01   0.216E-01 -.400E-01 -.331E-01
   0.732E+01 -.619E+01 -.177E+02   -.742E+01 0.612E+01 0.180E+02   0.789E-01 0.600E-01 -.316E+00
   0.461E+01 -.326E+01 -.437E+01   -.467E+01 0.328E+01 0.441E+01   0.651E-01 -.304E-01 -.472E-01
   0.443E+01 -.126E+01 -.137E+01   -.450E+01 0.129E+01 0.138E+01   0.518E-01 0.151E-01 -.331E-01
   0.585E+01 -.434E+01 -.536E+01   -.599E+01 0.441E+01 0.545E+01   0.115E+00 -.678E-01 -.949E-01
   0.569E+01 -.444E+01 -.575E+01   -.577E+01 0.451E+01 0.586E+01   0.945E-01 -.770E-01 -.858E-01
   0.198E+02 0.462E+01 -.194E+02   -.200E+02 -.503E+01 0.195E+02   0.264E+00 0.345E+00 -.262E+00
   0.335E+01 -.525E+00 -.317E+01   -.335E+01 0.498E+00 0.313E+01   -.137E-01 -.121E-04 0.514E-01
   0.215E-01 0.995E-02 -.490E-01   -.209E-01 -.876E-02 -.123E-01   -.927E-03 -.517E-03 0.630E-01
   -.135E+01 0.124E+01 -.411E+01   0.143E+01 -.123E+01 0.412E+01   -.916E-01 -.377E-01 -.120E-01
   -.818E+01 -.337E+01 -.789E+01   0.826E+01 0.355E+01 0.798E+01   -.542E-01 -.170E+00 -.600E-01
   -.440E+01 0.126E+01 -.137E+01   0.446E+01 -.129E+01 0.138E+01   -.517E-01 -.146E-01 -.345E-01
   -.197E+02 -.461E+01 -.193E+02   0.199E+02 0.501E+01 0.195E+02   -.268E+00 -.340E+00 -.269E+00
   -.331E+01 0.544E+00 -.316E+01   0.331E+01 -.520E+00 0.312E+01   0.111E-01 0.931E-03 0.492E-01
   -.580E+01 0.434E+01 -.535E+01   0.594E+01 -.441E+01 0.544E+01   -.118E+00 0.693E-01 -.973E-01
   -.567E+01 0.443E+01 -.574E+01   0.576E+01 -.450E+01 0.585E+01   -.949E-01 0.776E-01 -.875E-01
   -.606E+01 0.211E-01 -.902E-01   0.619E+01 -.149E-01 -.173E-01   -.118E+00 -.119E-01 0.865E-01
   -.734E+01 0.618E+01 -.176E+02   0.743E+01 -.612E+01 0.179E+02   -.752E-01 -.581E-01 -.320E+00
   -.610E-01 0.893E-02 -.234E+02   0.581E-01 -.116E-01 0.237E+02   0.379E-02 0.150E-02 -.269E+00
   -.221E-01 0.478E+01 -.866E-01   0.278E-01 -.487E+01 -.144E-01   0.215E-02 0.899E-01 0.821E-01
[...]
   -.445E+02 0.403E+02 0.416E+02   0.484E+02 -.432E+02 -.446E+02   -.379E+01 0.303E+01 0.307E+01
   0.291E+01 0.236E+01 0.944E+01   -.291E+01 -.235E+01 -.965E+01   -.178E-02 -.188E-01 0.211E+00
   -.170E+02 0.167E+02 0.198E+02   0.171E+02 -.167E+02 -.196E+02   -.204E+00 0.195E+00 0.201E+00
   -.427E+01 0.509E+01 0.372E+01   0.429E+01 -.508E+01 -.383E+01   -.825E-01 0.227E-01 0.149E+00
   -.313E+01 0.182E+02 0.202E+02   0.322E+01 -.186E+02 -.207E+02   -.415E-01 0.453E+00 0.501E+00
   0.431E+02 -.434E+02 0.428E+02   -.459E+02 0.471E+02 -.457E+02   0.269E+01 -.342E+01 0.280E+01
   0.736E+01 0.612E+01 0.176E+02   -.743E+01 -.615E+01 -.180E+02   0.609E-01 0.309E-01 0.426E+00
   0.805E+01 -.316E+01 0.775E+01   -.831E+01 0.354E+01 -.803E+01   0.215E+00 -.260E+00 0.221E+00
   0.178E+02 0.611E+01 0.715E+01   -.182E+02 -.613E+01 -.719E+01   0.419E+00 0.142E-01 0.323E-01
   0.331E+01 0.433E+00 0.306E+01   -.335E+01 -.512E+00 -.315E+01   0.467E-01 0.498E-01 0.931E-01
   0.197E+02 -.487E+01 0.192E+02   -.200E+02 0.499E+01 -.196E+02   0.483E+00 -.176E+00 0.486E+00
   0.563E+01 0.438E+01 0.567E+01   -.576E+01 -.451E+01 -.588E+01   0.129E+00 0.120E+00 0.195E+00
   0.581E+01 0.428E+01 0.531E+01   -.598E+01 -.441E+01 -.544E+01   0.154E+00 0.125E+00 0.132E+00
   -.125E+01 0.224E+00 -.402E+00   0.121E+01 -.172E+00 0.831E+00   0.423E-01 -.366E-01 -.221E+00
   0.802E-02 -.421E-03 -.197E+01   -.755E-12 -.131E-12 0.174E-11   -.299E-01 -.252E-02 0.193E+01

 POSITION                                       TOTAL-FORCE (eV/Angst)
      0.00000      0.00035     10.63500         0.003260     -0.011851     -0.009266
     10.63500      1.77248      1.77217        -0.000182      0.000554      0.005234
      1.77560     10.63256      1.77547        -0.007388      0.017651     -0.015409
      1.77218      1.77248     10.63499         0.012550     -0.002261     -0.008735
      2.66263      0.88096      2.66254        -0.009640     -0.017957     -0.008596
      0.88740      0.88529      0.88736        -0.005681      0.006571      0.002248
      0.88588      2.65796      2.65935        -0.008902     -0.015053     -0.022438
      2.65934      2.65806      0.88591        -0.021125     -0.012435     -0.000837
      3.54399      0.00098      0.00402         0.046745      0.001198     -0.015679
      3.54416      1.76963      1.77333         0.036854      0.017853      0.000944
      5.31884      0.00299      1.76930         0.007223     -0.004962      0.003142
      5.31750      1.77247     10.63499        -0.000392      0.001123     -0.005710
      6.20231      0.88552      2.65934         0.045893      0.028053     -0.010040
      4.43179      0.88690      0.88681        -0.025426     -0.006910      0.006140
      4.43266      2.65932      2.65926        -0.043203     -0.027761     -0.009492
      6.20320      2.65805      0.88681         0.027623      0.007131      0.006145
      7.09102      0.00096     10.63101         0.009630      0.004570      0.015713
      7.09085      1.77528      1.77336        -0.037965     -0.016358      0.001601
      8.86649      0.00355      1.76860        -0.027684     -0.035599      0.016592
      8.86282      1.77249     10.63500        -0.012790      0.003499     -0.008962
      9.74913      0.88699      2.65936         0.008549      0.015042     -0.022243
      7.97565      0.88689      0.88591         0.021419      0.012119     -0.000417
      7.97237      2.66399      2.66255         0.010687      0.017766     -0.008779
      9.74760      2.65969      0.88735         0.005905     -0.007144      0.002201
      0.00000      3.54464     10.63500        -0.003716      0.012841     -0.009281
     10.63052      5.31638      1.77104         0.017320      0.036596      0.001664
      1.76850      3.54142      1.76859         0.027655      0.036717      0.017009
      1.77148      5.31643     10.63079         0.000288      0.003384      0.016146
      2.65601      4.43233      2.65675        -0.055999     -0.083674     -0.046682
      0.88545      4.43184      0.88537        -0.008432     -0.037781     -0.006358
      0.88198      6.20426      2.65538        -0.039875     -0.058815     -0.018222
      2.65593      6.20459      0.88265         0.002534     -0.001058     -0.017764
      3.54399      3.54400     10.63101        -0.009298     -0.004218      0.015031
      3.53162      5.30761      1.75602        -0.035119      0.007788      0.079552
      5.31614      3.54197      1.76929        -0.007672      0.006425      0.003539
      5.31750      5.31814      0.00002        -0.007288     -0.005480     -0.015969
      6.19662      4.44684      2.67154        -0.004185     -0.058626     -0.074567
      4.43123      4.42937      0.88387         0.040163      0.008863     -0.000946
      4.43153      6.21064      2.67037         0.198311      0.025293     -0.085045
      6.20244      6.20445      0.88915         0.006792     -0.002887     -0.001180
      7.09102      3.54401      0.00399        -0.047882     -0.000046     -0.015809
      7.08517      5.32247      1.77858        -0.019518     -0.002364     -0.015818
      8.85942      3.54741      1.77546         0.006504     -0.016436     -0.014661
      8.86354      5.31644      0.00423        -0.013007      0.043134     -0.023271
      9.74417      4.43314      2.66109        -0.016203     -0.005819     -0.012893
      7.97354      4.43343      0.89098         0.018546     -0.008394      0.016301
      7.96669      6.20706      2.66900         0.079545     -0.046719     -0.097113
      9.74942      6.20339      0.88531        -0.010473     -0.026900      0.009678
      0.00001      7.09002      0.00001        -0.000294      0.000639      0.004553
      0.00455      8.86363      1.77104        -0.017703     -0.035938      0.000919
      1.76685      7.08822      1.76689         0.020767     -0.001793      0.018743
      1.77147      8.86358      0.00425         0.011810     -0.041837     -0.023065
      2.66837      7.97294      2.66901        -0.080205      0.044028     -0.098375
      0.88561      7.97663      0.88531         0.010313      0.025312      0.009376
      0.89089      9.74684      2.66110         0.016394      0.005376     -0.013161
      2.66147      9.74657      0.89099        -0.018231      0.008058      0.016343
      3.54591      7.09002      0.00004         0.002424     -0.006445     -0.017097
      3.54982      8.85755      1.77859         0.019635      0.002130     -0.016220
      5.31747      7.08998      1.77228         0.001111     -0.001085     -0.030303
      5.31750      8.86189      0.00005         0.008214      0.004282     -0.015048
[...]
      5.31747      7.09008      8.86286         0.000465     -0.000822     -0.105788
      5.26550      8.89621      7.13881        -0.053607      0.248053      0.204219
      6.20245      7.97561      9.74592        -0.002046     -0.011109      0.013785
      4.43150      7.96938      7.96485        -0.121006      0.189536      0.425014
      4.43123      9.75060      9.75118        -0.062325      0.030084      0.046630
      6.19662      9.73305      7.96345         0.048242      0.095920      0.093547
      7.14669      7.03526      7.14337         0.046201      0.078134      0.100041
      7.08517      8.85756      8.85648        -0.003761      0.000107     -0.023012
      8.86821      7.08820      8.86816        -0.041521      0.106405     -0.044402
      8.85737      8.85788      7.08547        -0.036222      0.000035     -0.002076
      9.74942      7.97664      9.74971         0.012374     -0.026669      0.013490
      7.96668      7.97300      7.96604         0.170122     -0.067525      0.152788
      7.97353      9.74657      9.74404        -0.001342      0.000346     -0.008805
      9.74415      9.74685      7.97390        -0.008211      0.002433      0.004599
      5.31535      7.09023      5.31594         0.013345      0.022534      0.136712
    total drift:                               -0.011134      0.003500      0.005403

  FREE ENERGIE OF THE ION-ELECTRON SYSTEM (eV)
  free  energy   TOTEN  =     -2222.14344659 eV

  energy  without entropy=    -2222.14344659  energy(sigma->0) =    -2222.14344659

 writing wavefunctions