 vasp.6.2.1 16May21 (build Sep 27 2021 21:11:04) gamma-only

 executed on             LinuxIFC date 2023.05.04  06:45:49

 INCAR:
   GGA = PE
   ISTART = 1
   ISPIN = 2
   ENCUT = 370
   ENAUG = 740
   EDIFF = 1E-5
   IBRION = 2
   POTIM = 0.2
   ALGO = All
   NSW = 0
   EDIFFG = -1E-2
   ISMEAR = 0
   SIGMA = 0.01
   ISIF = 1
   LREAL = .FALSE.
   ISYM = 0
   PREC = Accurate
   LHFCALC = .TRUE.
   HFSCREEN = 0.2
   NCORE = 8
   NELM = 60
   NWRITE = 2
   SYMPREC = 1.0e-8

 POTCAR:    PAW_PBE C 08Apr2002
 POTCAR:    PAW_PBE Pr 23Dec2003
|           W    W    AA    RRRRR   N    N  II  N    N   GGGG   !!!           |
|           W    W   A  A   R    R  NN   N  II  NN   N  G    G  !!!           |
|           W    W  A    A  R    R  N N  N  II  N N  N  G       !!!           |
|           W WW W  AAAAAA  RRRRR   N  N N  II  N  N N  G  GGG   !            |
|           WW  WW  A    A  R   R   N   NN  II  N   NN  G    G                |
|           W    W  A    A  R    R  N    N  II  N    N   GGGG   !!!           |
|     You use a magnetic or noncollinear calculation, but did not specify     |
|     the initial magnetic moment with the MAGMOM tag. Note that a            |
|     default of 1 will be used for all atoms. This ferromagnetic setup       |
|     may break the symmetry of the crystal, in particular it may rule        |
|     out finding an antiferromagnetic solution. Thence, we recommend         |
|     setting the initial magnetic moment manually or verifying carefully     |
|     that this magnetic setup is desired.                                    |

   TITEL  = PAW_PBE C 08Apr2002
   POMASS =   12.011; ZVAL   =    4.000    mass and valenz
   ENMAX  =  400.000; ENMIN  =  300.000 eV

   TITEL  = PAW_PBE Pr 23Dec2003
   POMASS =  140.907; ZVAL   =   13.000    mass and valenz
   ENMAX  =  272.941; ENMIN  =  204.706 eV

  PAW_PBE C 08Apr2002                   :
  PAW_PBE Pr 23Dec2003                  :

 POSCAR: 3D\Atomistic
  positions in direct lattice
  velocities in cartesian coordinates
 exchange correlation table for  LEXCH =        8
   RHO(1)=    0.500       N(1)  =     2000
   RHO(2)=  100.500       N(2)  =     4000

 ion  position               nearest neighbor table
   1  0.000  0.000  1.000-  72 1.53   6 1.53 163 1.53 197 1.53
   2  0.000  0.167  0.166-  21 1.53   6 1.53  24 1.53   7 1.53
   3  0.167  0.000  0.166-  56 1.53   5 1.53  55 1.53   6 1.53
   4  0.167  0.167  1.000- 147 1.53   8 1.53 149 1.53   6 1.53
   5  0.250  0.084  0.250-  81 1.53   3 1.53  10 1.53  76 1.53
   6  0.083  0.084  0.083-   4 1.53   2 1.53   1 1.53   3 1.53
   7  0.083  0.250  0.250-  76 1.53  97 1.53  27 1.53   2 1.53
   8  0.250  0.250  0.083-  33 1.53  27 1.53  10 1.53   4 1.53
   9  0.333  0.001  0.000- 205 1.53  14 1.53 147 1.53  56 1.53
  10  0.333  0.167  0.166-  15 1.53  14 1.53   8 1.53   5 1.53
  11  0.500  0.001  0.165-  63 1.52  14 1.53  64 1.54  13 1.54
  12  0.500  0.167  0.000- 157 1.53  14 1.53 155 1.53  16 1.53
  13  0.584  0.084  0.249-  18 1.53  84 1.53  89 1.53  11 1.54
  14  0.417  0.084  0.083-  11 1.53  12 1.53  10 1.53   9 1.53
  15  0.417  0.249  0.249- 105 1.53  10 1.53  84 1.53  35 1.54
  16  0.584  0.250  0.083-  35 1.53  12 1.53  18 1.53  41 1.53
  17  0.667  0.000  1.000-  64 1.53 213 1.53 155 1.53  22 1.53
  18  0.667  0.167  0.166-  13 1.53  23 1.53  16 1.53  22 1.53
  19  0.834  0.000  0.166-  71 1.53  72 1.53  21 1.53  22 1.53
  20  0.834  0.167  1.000-  22 1.53 163 1.53  24 1.53 165 1.53
  21  0.917  0.084  0.250-  92 1.53  73 1.53  19 1.53   2 1.53
  22  0.750  0.084  0.083-  18 1.53  17 1.53  19 1.53  20 1.53
  23  0.750  0.250  0.250- 112 1.53  92 1.53  18 1.53  43 1.53
  24  0.917  0.250  0.083-  25 1.53  20 1.53   2 1.53  43 1.53
  25  0.000  0.333  1.000-  30 1.53 187 1.53 149 1.53  24 1.53
  26  1.000  0.500  0.166-  31 1.53  48 1.53  30 1.53  45 1.53
  27  0.167  0.333  0.166-  29 1.53  30 1.53   8 1.53   7 1.53
  28  0.166  0.500  0.000-  30 1.53  32 1.53 171 1.53 173 1.54
  29  0.250  0.417  0.249-  27 1.53  34 1.54 105 1.54 100 1.54
  30  0.083  0.417  0.083-  28 1.53  27 1.53  26 1.53  25 1.53
  31  0.083  0.583  0.249- 100 1.53  26 1.53 120 1.53  51 1.54
  32  0.250  0.584  0.083-  57 1.53  28 1.53  51 1.53  34 1.54
  33  0.333  0.333  0.000-   8 1.53  38 1.53 171 1.53 157 1.54
  34  0.333  0.500  0.166-  29 1.54  38 1.54  32 1.54  39 1.54
  35  0.500  0.333  0.166-  37 1.53  16 1.53  38 1.53  15 1.54
  36  0.500  0.500  0.000-  38 1.53 179 1.53  40 1.53 181 1.53
  37  0.584  0.415  0.248- 108 1.53  35 1.53 112 1.54  42 1.54
  38  0.417  0.417  0.083-  36 1.53  33 1.53  35 1.53  34 1.54
  39  0.417  0.584  0.249-  59 1.53  34 1.54 128 1.54 108 1.54
  40  0.584  0.583  0.083-  65 1.53  42 1.53  36 1.53  59 1.53
  41  0.667  0.333  1.000- 179 1.53 165 1.53  16 1.53  46 1.53
  42  0.667  0.500  0.166-  46 1.53  40 1.53  47 1.54  37 1.54
  43  0.834  0.333  0.166-  45 1.53  46 1.53  23 1.53  24 1.53
  44  0.834  0.500  0.000- 189 1.53  48 1.53 187 1.53  46 1.53
  45  0.917  0.417  0.250- 115 1.53  43 1.53  26 1.53  97 1.53
  46  0.750  0.417  0.083-  42 1.53  43 1.53  44 1.53  41 1.53
  47  0.752  0.584  0.248-  67 1.52 135 1.53  42 1.54 115 1.54
  48  0.917  0.584  0.083-  67 1.53  49 1.53  26 1.53  44 1.53
  49  1.000  0.667  0.000- 173 1.53  48 1.53  54 1.53 211 1.53
  50  0.000  0.834  0.166-  69 1.53  55 1.53  54 1.53  72 1.53
  51  0.166  0.667  0.166-  53 1.53  54 1.53  32 1.53  31 1.54
  52  0.167  0.834  1.000- 195 1.53 197 1.53  54 1.53  56 1.53
  53  0.248  0.750  0.248- 128 1.53  51 1.53 123 1.54  58 1.54
  54  0.083  0.750  0.083-  51 1.53  49 1.53  50 1.53  52 1.53
  55  0.083  0.917  0.250- 123 1.53  50 1.53  73 1.53   3 1.53
  56  0.250  0.917  0.083-  58 1.53   3 1.53   9 1.53  52 1.53
  57  0.333  0.667  0.000-  32 1.53 195 1.53  62 1.53 181 1.53
  58  0.333  0.834  0.166-  56 1.53  62 1.53  63 1.54  53 1.54
  59  0.501  0.667  0.166-  39 1.53  61 1.53  62 1.53  40 1.53
  60  0.500  0.834  1.000-  62 1.53  64 1.53 205 1.53 203 1.54
[...]
 201  0.500  0.666  0.834- 181 1.53 203 1.54 204 1.54 182 1.54
 202  0.502  0.836  0.668- 131 1.52 206 1.53 133 1.54 204 1.57 215 2.65
 203  0.584  0.750  0.917- 208 1.54  65 1.54  60 1.54 201 1.54
 204  0.415  0.751  0.752- 199 1.52 200 1.53 201 1.54 202 1.57 215 2.65
 205  0.417  0.918  0.917- 200 1.53   9 1.53  60 1.53 153 1.54
 206  0.584  0.919  0.752- 202 1.53 153 1.53 208 1.54 159 1.54
 207  0.670  0.668  0.668- 131 1.52 212 1.53 118 1.54 182 1.57 215 2.65
 208  0.667  0.834  0.834- 213 1.53 203 1.54 206 1.54 212 1.54
 209  0.834  0.667  0.834- 212 1.53 211 1.53 190 1.53 189 1.54
 210  0.834  0.834  0.667- 214 1.53 139 1.53 141 1.54 212 1.54
 211  0.917  0.750  0.917- 209 1.53  49 1.53  68 1.53 192 1.53
 212  0.752  0.750  0.752- 207 1.53 209 1.53 208 1.54 210 1.54
 213  0.750  0.917  0.917- 208 1.53  17 1.53  68 1.53 161 1.53
 214  0.917  0.917  0.750- 210 1.53 161 1.53 143 1.53 192 1.53
 215  0.459  0.625  0.541- 106 2.13 178 2.13 199 2.13 111 2.13 132 2.13 131 2.13 110 2.65 109 2.65
                           104 2.65 124 2.65 182 2.65 204 2.65 108 2.65 113 2.65 128 2.65 129 2.65

IMPORTANT INFORMATION: All symmetrisations will be switched off!
NOSYMM: (Re-)initialisation of all symmetry stuff for point group C_1.

                                     Primitive cell

  volume of cell :    1202.8529

  direct lattice vectors                    reciprocal lattice vectors
    10.635000229  0.000000000  0.000000000     0.094029147  0.000000000  0.000000000
     0.000000000 10.635000229  0.000000000     0.000000000  0.094029147  0.000000000
     0.000000000  0.000000000 10.635000229     0.000000000  0.000000000  0.094029147

  length of vectors
    10.635000229 10.635000229 10.635000229     0.094029147  0.094029147  0.094029147

  position of ions in fractional coordinates (direct lattice)
     0.000183213  0.000273733  0.999816883
     0.000183153  0.166849793  0.166392915
     0.166743295  0.000252788  0.166413838
     0.166706110  0.166813169  0.999853505
     0.249970188  0.083692368  0.249507951
     0.083447635  0.083539592  0.083127383
     0.083470031  0.250136532  0.249689627
     0.250001665  0.250020803  0.083134252
     0.333401940  0.000666510  0.000121605
     0.333402064  0.166544905  0.165999938
     0.500253555  0.001324492  0.165342142
     0.500178261  0.166537112  0.000129569
     0.583745861  0.083831293  0.249420570
     0.416873462  0.083854250  0.082812601
     0.416782480  0.249246213  0.248820383
     0.583650754  0.249722614  0.082820765
     0.667052091  0.000369313  0.999808831
     0.667052149  0.166857897  0.166297358
     0.833681742  0.000348364  0.166318328
     0.833607130  0.166849812  0.999816913
     0.916909640  0.083576564  0.249651786
     0.750348242  0.083576562  0.083090429
     0.750396286  0.249946927  0.249603730
     0.916872717  0.250114223  0.083127339
     0.000146552  0.333373030  0.999853491
     0.999878594  0.500068770  0.165999942
     0.166658537  0.333325429  0.166224980
     0.166476466  0.499973830  0.000105340
     0.249961538  0.416628101  0.249176223
     0.083354335  0.416668335  0.083134238
     0.082579668  0.583449478  0.248820376
     0.249907547  0.583506128  0.083018745
     0.333307118  0.333143330  0.000105356
     0.333491765  0.500158467  0.166180813
     0.500268399  0.332541167  0.165521903
     0.500220187  0.499978942  0.000008648
     0.583702615  0.415090428  0.248046778
     0.416839115  0.416574181  0.083018762
     0.417344080  0.584011434  0.248866601
     0.583739615  0.583497510  0.082930449
     0.667082390  0.333229266  0.999967629
     0.667388910  0.500035087  0.165757819
     0.833586327  0.333410217  0.166413711
     0.834000128  0.500068778  0.000121470
     0.917025865  0.416636820  0.249507760
     0.750492267  0.416636829  0.082974188
     0.752410210  0.583966012  0.247589809
     0.917187654  0.583540499  0.082812440
     0.999870637  0.666845131  0.000129475
     0.000191392  0.833719107  0.166297322
     0.165874343  0.666935270  0.165521930
     0.166562431  0.833749275  0.999967687
     0.248423791  0.750369469  0.248046878
     0.083056071  0.750317434  0.082820757
     0.083280335  0.917062935  0.249603898
     0.249970149  0.917158882  0.082974361
     0.333312353  0.666886850  0.000008728
     0.333368459  0.834055894  0.165758044
     0.500584822  0.667251716  0.166001668
     0.500212276  0.833812544  0.999922039
[...]
     0.499704935  0.666371333  0.834076832
     0.501664856  0.836186163  0.667580842
     0.583559479  0.750226094  0.916760780
     0.415381792  0.751295481  0.752467364
     0.416782391  0.917846328  0.917420419
     0.583702361  0.918620050  0.751576096
     0.669519859  0.668332550  0.667580735
     0.667091765  0.833758919  0.833770501
     0.834478181  0.666935258  0.834125652
     0.834242114  0.834055915  0.666631431
     0.917179365  0.750317433  0.916944014
     0.751953215  0.750369497  0.751576138
     0.750396161  0.917062979  0.916719746
     0.917025784  0.917158926  0.750029827
     0.458519470  0.625185655  0.541480061

  ion indices of the primitive-cell ions
   primitive index   ion index
                 1           1
                 2           2
[...]
[...]
    637      21.0936      0.00000
    638      21.1436      0.00000
    639      21.1634      0.00000
    640      21.1634      0.00000
    641      21.1714      0.00000
    642      21.1714      0.00000
    643      21.2648      0.00000
    644      21.2648      0.00000
    645      21.2688      0.00000
    646      21.3104      0.00000
    647      21.4250      0.00000
    648      21.8223      0.00000
    649      21.9003      0.00000
    650      22.0548      0.00000
    651      22.1313      0.00000

 soft charge-density along one line, spin component           1
         0         1         2         3         4         5         6         7         8         9
 total charge-density along one line

 soft charge-density along one line, spin component           2
         0         1         2         3         4         5         6         7         8         9
 total charge-density along one line

------------------------ aborting loop because EDIFF is reached ----------------------------------------

 only isotrope contributions calculated
  for stress because ISIF=1 (only pressure is correct)

  FORCE on cell =-STRESS in cart. coord.  units (eV):
  Direction    XX          YY          ZZ          XY          YZ          ZX
  Alpha Z  3317.58787  3317.58787  3317.58787
  Ewald  -12949.35539-12949.35662-12949.35548    21.21275   -21.21249   -21.22282
  Hartree   965.44199   965.44146   965.44183    -0.66105     0.66108     0.65949
  E(xc)   -2528.38018 -2528.38018 -2528.38018     0.10227    -0.10227    -0.10226
  Local   -1180.42680 -1180.42523 -1180.42648   -17.25130    17.25106    17.26131
  n-local  -636.51878  -636.51878  -636.51878     0.00000     0.00000     0.00000
  augment   -78.57965   -78.57965   -78.57965     0.00000     0.00000     0.00000
  Kinetic 13950.32669 13950.32664 13950.32661     3.40503    -3.40502    -3.40371
  Fock     -867.42573  -867.42577  -867.42574    -3.80402     3.80403     3.80409
  Total      -7.32997    -7.33025    -7.33000     3.00368    -3.00361    -3.00391
  in kB      -9.76338    -9.76375    -9.76343     4.00085    -4.00075    -4.00115

 VOLUME and BASIS-vectors are now :
  energy-cutoff  :      370.00
  volume of cell :     1202.85
      direct lattice vectors                 reciprocal lattice vectors
    10.635000229  0.000000000  0.000000000     0.094029147  0.000000000  0.000000000
     0.000000000 10.635000229  0.000000000     0.000000000  0.094029147  0.000000000
     0.000000000  0.000000000 10.635000229     0.000000000  0.000000000  0.094029147

  length of vectors
    10.635000229 10.635000229 10.635000229     0.094029147  0.094029147  0.094029147

 FORCES acting on ions:
    Electron-Ion                     Ewald-Force                    Non-Local-Force
   0.298E+00 -.955E+00 -.298E+00   -.305E+00 0.953E+00 0.304E+00   0.462E-02 0.919E-03 -.463E-02
   0.298E+00 0.298E+00 0.954E+00   -.304E+00 -.304E+00 -.952E+00   0.462E-02 0.460E-02 -.974E-03
   0.153E+01 -.709E+00 0.708E+00   -.151E+01 0.701E+00 -.700E+00   -.173E-01 0.849E-02 -.855E-02
   0.138E+01 -.545E-01 0.544E-01   -.138E+01 0.672E-01 -.670E-01   0.569E-02 -.111E-01 0.110E-01
   0.181E+01 -.811E+00 0.109E+01   -.183E+01 0.842E+00 -.110E+01   0.112E-01 -.287E-01 0.122E-01
   0.962E+00 -.288E+00 0.288E+00   -.960E+00 0.294E+00 -.294E+00   -.706E-03 -.464E-02 0.471E-02
   0.720E+00 0.720E+00 0.154E+01   -.712E+00 -.712E+00 -.152E+01   -.856E-02 -.857E-02 -.173E-01
   0.187E+01 0.269E+00 0.394E+00   -.185E+01 -.268E+00 -.399E+00   -.140E-01 -.711E-03 0.496E-02
   0.223E+01 -.677E+00 -.426E+00   -.222E+01 0.717E+00 0.478E+00   -.133E-01 -.376E-01 -.477E-01
   0.223E+01 0.425E+00 0.677E+00   -.222E+01 -.478E+00 -.716E+00   -.133E-01 0.477E-01 0.375E-01
   -.371E+01 -.119E+01 0.119E+01   0.362E+01 0.118E+01 -.118E+01   0.808E-01 0.131E-01 -.132E-01
   -.146E+01 0.336E+00 -.336E+00   0.142E+01 -.350E+00 0.350E+00   0.430E-01 0.123E-01 -.123E-01
   -.137E+01 0.261E+00 -.290E+00   0.139E+01 -.347E+00 0.294E+00   -.175E-01 0.795E-01 -.321E-02
   0.145E+01 -.318E+00 0.318E+00   -.141E+01 0.332E+00 -.332E+00   -.429E-01 -.124E-01 0.125E-01
   -.133E+01 0.161E+01 0.120E+01   0.130E+01 -.165E+01 -.123E+01   0.190E-01 0.379E-01 0.231E-01
   -.225E+01 0.687E+00 0.405E+00   0.223E+01 -.726E+00 -.458E+00   0.134E-01 0.376E-01 0.478E-01
   -.187E+01 -.257E+00 -.406E+00   0.185E+01 0.256E+00 0.412E+00   0.139E-01 0.566E-03 -.479E-02
   -.187E+01 0.406E+00 0.257E+00   0.185E+01 -.411E+00 -.256E+00   0.139E-01 0.477E-02 -.639E-03
   -.569E+00 -.569E+00 0.569E+00   0.548E+00 0.548E+00 -.548E+00   0.187E-01 0.186E-01 -.187E-01
   -.954E+00 0.298E+00 -.298E+00   0.952E+00 -.304E+00 0.304E+00   0.971E-03 0.461E-02 -.462E-02
   0.706E-01 0.706E-01 0.137E+01   -.833E-01 -.834E-01 -.138E+01   0.111E-01 0.111E-01 0.570E-02
   -.137E+01 0.706E-01 -.701E-01   0.138E+01 -.834E-01 0.828E-01   -.571E-02 0.111E-01 -.110E-01
   -.127E+01 0.141E+01 0.127E+01   0.132E+01 -.147E+01 -.132E+01   -.459E-01 0.542E-01 0.459E-01
   -.288E+00 0.961E+00 0.288E+00   0.294E+00 -.959E+00 -.294E+00   -.472E-02 -.749E-03 0.472E-02
   -.539E-01 0.138E+01 0.544E-01   0.665E-01 -.138E+01 -.670E-01   -.110E-01 0.576E-02 0.110E-01
   0.426E+00 0.223E+01 0.677E+00   -.479E+00 -.222E+01 -.716E+00   0.477E-01 -.134E-01 0.376E-01
   0.128E+01 0.128E+01 0.140E+01   -.133E+01 -.133E+01 -.146E+01   0.459E-01 0.459E-01 0.541E-01
   -.278E+00 0.137E+01 0.237E+00   0.283E+00 -.139E+01 -.322E+00   -.340E-02 0.176E-01 0.797E-01
   0.145E+01 0.145E+01 0.327E+01   -.144E+01 -.144E+01 -.323E+01   -.474E-02 -.476E-02 -.390E-01
   0.269E+00 0.187E+01 0.394E+00   -.268E+00 -.185E+01 -.399E+00   -.683E-03 -.140E-01 0.499E-02
   0.161E+01 -.133E+01 0.120E+01   -.165E+01 0.130E+01 -.123E+01   0.379E-01 0.191E-01 0.230E-01
   -.998E-01 0.997E+00 0.580E+00   0.689E-01 -.985E+00 -.618E+00   0.253E-01 -.108E-01 0.383E-01
   0.137E+01 -.278E+00 0.236E+00   -.139E+01 0.283E+00 -.321E+00   0.177E-01 -.334E-02 0.797E-01
   0.900E+00 0.900E+00 0.305E+01   -.931E+00 -.932E+00 -.312E+01   0.328E-01 0.327E-01 0.698E-01
   0.131E+01 0.120E+01 0.160E+01   -.128E+01 -.123E+01 -.164E+01   -.190E-01 0.230E-01 0.380E-01
   0.217E+00 -.757E-01 -.119E+01   -.214E+00 0.971E-01 0.119E+01   -.177E-02 -.211E-01 0.392E-02
   -.316E+01 0.524E+01 0.590E+01   0.315E+01 -.546E+01 -.616E+01   -.982E-02 0.210E+00 0.247E+00
   0.996E+00 -.999E-01 0.580E+00   -.984E+00 0.691E-01 -.618E+00   -.109E-01 0.252E-01 0.383E-01
   0.751E+00 0.752E+00 0.795E+01   -.689E+00 -.690E+00 -.823E+01   -.609E-01 -.609E-01 0.256E+00
   0.616E-01 -.234E+00 0.116E+01   -.829E-01 0.232E+00 -.115E+01   0.212E-01 0.193E-02 -.359E-02
   -.182E+01 0.109E+01 -.831E+00   0.183E+01 -.110E+01 0.862E+00   -.111E-01 0.122E-01 -.286E-01
   -.698E+00 0.711E+00 0.188E+01   0.752E+00 -.602E+00 -.171E+01   -.511E-01 -.104E+00 -.150E+00
   -.708E+00 0.153E+01 0.708E+00   0.700E+00 -.151E+01 -.700E+00   0.855E-02 -.172E-01 -.854E-02
   -.676E+00 0.223E+01 -.426E+00   0.716E+00 -.222E+01 0.478E+00   -.376E-01 -.134E-01 -.477E-01
   -.810E+00 0.181E+01 0.109E+01   0.841E+00 -.183E+01 -.110E+01   -.288E-01 0.111E-01 0.122E-01
   -.109E+01 0.181E+01 0.811E+00   0.110E+01 -.183E+01 -.842E+00   -.122E-01 0.111E-01 0.288E-01
   -.381E+01 0.221E+01 0.381E+01   0.370E+01 -.179E+01 -.370E+01   0.997E-01 -.381E+00 -.997E-01
   -.318E+00 0.145E+01 0.318E+00   0.331E+00 -.141E+01 -.332E+00   -.125E-01 -.428E-01 0.125E-01
   0.337E+00 -.146E+01 -.336E+00   -.351E+00 0.142E+01 0.351E+00   0.123E-01 0.429E-01 -.123E-01
   0.407E+00 -.187E+01 0.257E+00   -.412E+00 0.185E+01 -.256E+00   0.478E-02 0.140E-01 -.631E-03
   0.120E+01 0.132E+01 0.160E+01   -.123E+01 -.128E+01 -.164E+01   0.229E-01 -.190E-01 0.380E-01
   0.109E+01 -.182E+01 -.830E+00   -.110E+01 0.183E+01 0.862E+00   0.121E-01 -.111E-01 -.286E-01
   0.524E+01 -.316E+01 0.590E+01   -.546E+01 0.315E+01 -.616E+01   0.210E+00 -.989E-02 0.247E+00
   0.687E+00 -.225E+01 0.405E+00   -.726E+00 0.223E+01 -.458E+00   0.376E-01 0.133E-01 0.478E-01
   0.141E+01 -.127E+01 0.127E+01   -.147E+01 0.132E+01 -.132E+01   0.542E-01 -.459E-01 0.459E-01
   0.181E+01 -.109E+01 0.811E+00   -.183E+01 0.110E+01 -.842E+00   0.112E-01 -.122E-01 0.288E-01
   -.764E-01 0.217E+00 -.119E+01   0.978E-01 -.215E+00 0.119E+01   -.210E-01 -.179E-02 0.392E-02
   0.710E+00 -.697E+00 0.188E+01   -.601E+00 0.752E+00 -.171E+01   -.104E+00 -.510E-01 -.150E+00
   -.124E+01 -.124E+01 0.356E+01   0.138E+01 0.138E+01 -.359E+01   -.137E+00 -.137E+00 0.253E-01
   -.102E+01 0.930E-01 -.606E+00   0.100E+01 -.620E-01 0.645E+00   0.109E-01 -.253E-01 -.381E-01
[...]
   0.596E+01 -.140E+02 -.916E+01   -.584E+01 0.149E+02 0.935E+01   -.759E-01 -.798E+00 -.112E+00
   -.913E+00 -.913E+00 -.306E+01   0.945E+00 0.945E+00 0.313E+01   -.326E-01 -.326E-01 -.697E-01
   -.599E+01 -.919E+01 -.140E+02   0.587E+01 0.938E+01 0.149E+02   0.761E-01 -.112E+00 -.799E+00
   -.133E+01 -.120E+01 -.161E+01   0.130E+01 0.123E+01 0.165E+01   0.190E-01 -.230E-01 -.379E-01
   -.316E+01 -.590E+01 -.524E+01   0.315E+01 0.616E+01 0.546E+01   -.976E-02 -.247E+00 -.210E+00
   -.140E+02 0.596E+01 -.916E+01   0.149E+02 -.584E+01 0.935E+01   -.798E+00 -.759E-01 -.112E+00
   -.145E+01 -.145E+01 -.327E+01   0.145E+01 0.145E+01 0.323E+01   0.468E-02 0.471E-02 0.390E-01
   -.160E+01 0.132E+01 -.120E+01   0.164E+01 -.128E+01 0.123E+01   -.380E-01 -.190E-01 -.229E-01
   -.188E+01 -.698E+00 -.711E+00   0.171E+01 0.752E+00 0.602E+00   0.150E+00 -.510E-01 0.104E+00
   -.405E+00 -.225E+01 -.687E+00   0.457E+00 0.223E+01 0.726E+00   -.478E-01 0.133E-01 -.376E-01
   -.590E+01 -.316E+01 -.524E+01   0.616E+01 0.315E+01 0.546E+01   -.247E+00 -.989E-02 -.210E+00
   -.127E+01 -.127E+01 -.141E+01   0.132E+01 0.132E+01 0.147E+01   -.459E-01 -.459E-01 -.542E-01
   -.810E+00 -.109E+01 -.181E+01   0.841E+00 0.110E+01 0.183E+01   -.288E-01 -.122E-01 -.112E-01
   -.746E-01 -.727E-01 0.717E-01   0.778E-01 0.757E-01 -.745E-01   -.409E-03 -.321E-03 0.113E-03
   -.933E-03 -.975E-03 0.964E-03   0.524E-12 -.635E-12 0.318E-11   0.268E-03 0.171E-03 -.559E-03

 POSITION                                       TOTAL-FORCE (eV/Angst)
      0.00195      0.00291     10.63305        -0.001289     -0.000874      0.001268
      0.00195      1.77445      1.76959        -0.001271     -0.001242      0.000931
      1.77331      0.00269      1.76981         0.000512      0.001163     -0.001118
      1.77292      1.77406     10.63344         0.004140      0.000960     -0.000944
      2.65843      0.89007      2.65352        -0.002359      0.000103      0.000138
      0.88747      0.88844      0.88406         0.001024      0.001088     -0.001149
      0.88770      2.66020      2.65545        -0.001435     -0.001393      0.000241
      2.65877      2.65897      0.88413         0.000025      0.000252     -0.000309
      3.54573      0.00709      0.00129         0.003146     -0.000700      0.001580
      3.54573      1.77121      1.76541         0.003135     -0.001544      0.000786
      5.32020      0.01409      1.75841        -0.012539      0.001125     -0.001060
      5.31940      1.77112      0.00138         0.000055     -0.000705      0.000752
      6.20814      0.89155      2.65259         0.000348     -0.001574      0.001049
      4.43345      0.89179      0.88071         0.000261      0.000216     -0.000277
      4.43248      2.65073      2.64620        -0.013837      0.000824     -0.003286
      6.20713      2.65580      0.88080        -0.003155      0.000684     -0.001180
      7.09410      0.00393     10.63297        -0.000027     -0.000507      0.000585
      7.09410      1.77453      1.76857        -0.000039     -0.000563      0.000533
      8.86621      0.00370      1.76880        -0.001521     -0.001481      0.001519
      8.86541      1.77445     10.63305        -0.000926     -0.001265      0.001277
      9.75133      0.88884      2.65505        -0.001079     -0.001146      0.004135
      7.97995      0.88884      0.88367        -0.004140     -0.001150      0.001086
      7.98046      2.65819      2.65454        -0.001223     -0.000817      0.001215
      9.75094      2.65996      0.88406         0.001143      0.001051     -0.001150
      0.00156      3.54542     10.63344         0.000953      0.004078     -0.000951
     10.63371      5.31823      1.76541        -0.001590      0.003164      0.000795
      1.77241      3.54492      1.76780         0.001220      0.001141     -0.000871
      1.77048      5.31722      0.00112         0.000666     -0.000286     -0.000744
      2.65834      4.43084      2.64999        -0.000089     -0.000054     -0.000252
      0.88647      4.43127      0.88413         0.000218      0.000041     -0.000297
      0.87823      6.20499      2.64620         0.000834     -0.013908     -0.003273
      2.65777      6.20559      0.88290        -0.004664      0.000846      0.001099
      3.54472      3.54298      0.00112        -0.000315      0.000616     -0.000740
      3.54668      5.31919      1.76733         0.002552      0.002596      0.001566
      5.32035      3.53658      1.76033         0.014404     -0.003037      0.001311
      5.31984      5.31728      0.00009         0.000276     -0.000859     -0.002681
      6.20768      4.41449      2.63798        -0.026271     -0.000137      0.001682
      4.43308      4.43027      0.88290         0.000925     -0.004645      0.001090
      4.43845      6.21096      2.64670        -0.002298     -0.002375     -0.006269
      6.20807      6.20550      0.88197         0.001165      0.000062      0.003701
      7.09442      3.54389     10.63466         0.002560      0.000105      0.000628
      7.09768      5.31787      1.76283         0.002056     -0.001856      0.005278
      8.86519      3.54582      1.76981         0.001114      0.000463     -0.001119
      8.86959      5.31823      0.00129        -0.000790      0.003161      0.001597
      9.75257      4.43093      2.65352         0.000123     -0.002341      0.000165
      7.98149      4.43093      0.88243        -0.000167     -0.002347     -0.000123
      8.00188      6.21048      2.63312        -0.009312      0.028672      0.009310
      9.75429      6.20595      0.88071         0.000258      0.000190     -0.000262
     10.63362      7.09190      0.00138        -0.000761      0.000054      0.000750
      0.00204      8.86660      1.76857        -0.000609     -0.000089      0.000570
      1.76407      7.09286      1.76033        -0.002991      0.014406      0.001307
      1.77139      8.86692     10.63466         0.000181      0.002494      0.000623
      2.64199      7.98018      2.63798        -0.000192     -0.026236      0.001654
      0.88330      7.97963      0.88080         0.000642     -0.003130     -0.001167
      0.88569      9.75296      2.65454        -0.000874     -0.001207      0.001196
      2.65843      9.75398      0.88243        -0.002364     -0.000145     -0.000119
      3.54478      7.09234      0.00009        -0.000862      0.000274     -0.002667
      3.54537      8.87018      1.76284        -0.001896      0.002008      0.005251
      5.32372      7.09622      1.76543         0.000548      0.000533     -0.007908
      5.31976      8.86760     10.63417        -0.000601      0.004762     -0.000444
[...]
      5.31436      7.08686      8.87041         0.003205      0.003188      0.006698
      5.33521      8.89284      7.09972         0.046929      0.058556      0.072173
      6.20616      7.97865      9.74975        -0.002144     -0.002099     -0.001043
      4.41759      7.99003      8.00249        -0.045258      0.073610      0.058200
      4.43248      9.76130      9.75677        -0.013829      0.003229     -0.000830
      6.20767      9.76952      7.99301        -0.026241     -0.001733      0.000186
      7.12034      7.10772      7.09972         0.058529      0.046823      0.072196
      7.09452      8.86703      8.86715         0.000203      0.000155     -0.000286
      8.87468      7.09286      8.87093        -0.001324      0.014416      0.003001
      8.87217      8.87018      7.08963        -0.005267      0.002001      0.001922
      9.75420      7.97963      9.75170         0.001170     -0.003123     -0.000651
      7.99702      7.98018      7.99301        -0.001673     -0.026227      0.000200
      7.98046      9.75296      9.74931        -0.001205     -0.001220      0.000859
      9.75257      9.75399      7.97657         0.000112     -0.000158      0.002363
      4.87635      6.64885      5.75864         0.003435      0.003342     -0.003328
    total drift:                               -0.000422     -0.000479      0.000148

  FREE ENERGIE OF THE ION-ELECTRON SYSTEM (eV)
  free  energy   TOTEN  =     -2256.60416981 eV

  energy  without entropy=    -2256.60416981  energy(sigma->0) =    -2256.60416981

 writing wavefunctions