 vasp.6.2.1 16May21 (build Sep 27 2021 21:11:04) gamma-only

 executed on             LinuxIFC date 2023.05.04  07:09:11

 INCAR:
   GGA = PE
   ISTART = 1
   ISPIN = 2
   ENCUT = 370
   ENAUG = 740
   EDIFF = 1E-5
   IBRION = 2
   POTIM = 0.2
   ALGO = All
   NSW = 0
   EDIFFG = -1E-2
   ISMEAR = 0
   SIGMA = 0.01
   ISIF = 1
   LREAL = .FALSE.
   ISYM = 0
   PREC = Accurate
   LDAU = .TRUE.
   LDAUTYPE = 1
   LDAUL = -1 3
   LDAUU = 0.00 7
   LDAUJ = 0.00 1
   LDAUPRINT = 2
   LMAXMIX = 6
   NCORE = 8
   NELM = 60
   NWRITE = 2
   SYMPREC = 1.0e-8

 POTCAR:    PAW_PBE C 08Apr2002
 POTCAR:    PAW_PBE Pr 23Dec2003
|           W    W    AA    RRRRR   N    N  II  N    N   GGGG   !!!           |
|           W    W   A  A   R    R  NN   N  II  NN   N  G    G  !!!           |
|           W    W  A    A  R    R  N N  N  II  N N  N  G       !!!           |
|           W WW W  AAAAAA  RRRRR   N  N N  II  N  N N  G  GGG   !            |
|           WW  WW  A    A  R   R   N   NN  II  N   NN  G    G                |
|           W    W  A    A  R    R  N    N  II  N    N   GGGG   !!!           |
|     You use a magnetic or noncollinear calculation, but did not specify     |
|     the initial magnetic moment with the MAGMOM tag. Note that a            |
|     default of 1 will be used for all atoms. This ferromagnetic setup       |
|     may break the symmetry of the crystal, in particular it may rule        |
|     out finding an antiferromagnetic solution. Thence, we recommend         |
|     setting the initial magnetic moment manually or verifying carefully     |
|     that this magnetic setup is desired.                                    |

   TITEL  = PAW_PBE C 08Apr2002
   POMASS =   12.011; ZVAL   =    4.000    mass and valenz
   ENMAX  =  400.000; ENMIN  =  300.000 eV

   TITEL  = PAW_PBE Pr 23Dec2003
   POMASS =  140.907; ZVAL   =   13.000    mass and valenz
   ENMAX  =  272.941; ENMIN  =  204.706 eV

  PAW_PBE C 08Apr2002                   :
  PAW_PBE Pr 23Dec2003                  :

 POSCAR: 3D\Atomistic
  positions in direct lattice
  velocities in cartesian coordinates
 exchange correlation table for  LEXCH =        8
   RHO(1)=    0.500       N(1)  =     2000
   RHO(2)=  100.500       N(2)  =     4000

 ion  position               nearest neighbor table
   1  0.000  0.000  1.000- 162 1.53   6 1.53  72 1.54 196 1.54
   2  1.000  0.167  0.167-   7 1.53  24 1.53  21 1.54   6 1.54
   3  0.166  0.000  0.166-   6 1.53   5 1.53  55 1.54  56 1.54
   4  0.167  0.167  1.000-   8 1.53 148 1.53 146 1.54   6 1.54
   5  0.249  0.084  0.249-  81 1.53   3 1.53  76 1.53  10 1.53
   6  0.083  0.084  0.083-   1 1.53   3 1.53   4 1.54   2 1.54
   7  0.083  0.250  0.250-   2 1.53  76 1.53  27 1.54  97 1.54
   8  0.250  0.250  0.083-   4 1.53  10 1.53  27 1.54  33 1.54
   9  0.333  0.000  1.000- 204 1.53 146 1.53  14 1.53  56 1.53
  10  0.333  0.166  0.166-  15 1.53  14 1.53   8 1.53   5 1.53
  11  0.500  0.001  0.166-  63 1.52  14 1.53  64 1.53  13 1.54
  12  0.500  0.167  1.000- 154 1.53  14 1.53  16 1.53 156 1.53
  13  0.583  0.084  0.250-  18 1.53  84 1.53  11 1.54  89 1.54
  14  0.417  0.084  0.082-  11 1.53  12 1.53  10 1.53   9 1.53
  15  0.416  0.249  0.249- 105 1.53  10 1.53  35 1.53  84 1.54
  16  0.583  0.250  0.083-  35 1.53  12 1.53  41 1.53  18 1.53
  17  0.667  0.000  0.000-  64 1.53  22 1.53 154 1.53 212 1.53
  18  0.667  0.167  0.167-  13 1.53  22 1.53  16 1.53  23 1.53
  19  0.833  0.000  0.167-  22 1.53  21 1.53  72 1.53  71 1.54
  20  0.833  0.167  0.000- 164 1.53  24 1.53  22 1.54 162 1.54
  21  0.916  0.084  0.250-  73 1.53  19 1.53  92 1.53   2 1.54
  22  0.750  0.084  0.084-  17 1.53  19 1.53  18 1.53  20 1.54
  23  0.750  0.250  0.250-  43 1.53  92 1.53  18 1.53 111 1.53
  24  0.917  0.250  0.083-   2 1.53  20 1.53  25 1.54  43 1.54
  25  0.000  0.333  1.000-  30 1.53 186 1.53 148 1.54  24 1.54
  26  0.999  0.500  0.166-  31 1.53  48 1.53  45 1.54  30 1.54
  27  0.166  0.333  0.166-  29 1.53  30 1.53   7 1.54   8 1.54
  28  0.166  0.500  0.999-  32 1.53 172 1.53 170 1.54  30 1.54
  29  0.249  0.417  0.249-  27 1.53 105 1.53 100 1.54  34 1.54
  30  0.083  0.417  0.083-  25 1.53  27 1.53  26 1.54  28 1.54
  31  0.082  0.584  0.249- 100 1.53  26 1.53 119 1.54  51 1.54
  32  0.249  0.584  0.082-  34 1.53  28 1.53  57 1.54  51 1.54
  33  0.333  0.334  0.999-  38 1.53 156 1.53 170 1.53   8 1.54
  34  0.332  0.500  0.165-  32 1.53  38 1.54  29 1.54  39 1.54
  35  0.500  0.332  0.165-  16 1.53  15 1.53  38 1.54  37 1.54
  36  0.500  0.500  1.000- 178 1.53  38 1.53  40 1.54 180 1.54
  37  0.583  0.416  0.250- 108 1.48  42 1.53 111 1.54  35 1.54
  38  0.416  0.417  0.083-  33 1.53  36 1.53  34 1.54  35 1.54
  39  0.416  0.583  0.248- 108 1.51  59 1.53  34 1.54 127 1.55
  40  0.583  0.584  0.084-  59 1.53  42 1.53  65 1.54  36 1.54
  41  0.667  0.334  0.001- 178 1.53  16 1.53  46 1.53 164 1.54
  42  0.666  0.500  0.167-  40 1.53  37 1.53  47 1.54  46 1.54
  43  0.833  0.334  0.167-  45 1.53  46 1.53  23 1.53  24 1.54
  44  0.834  0.500  0.001- 188 1.53  48 1.53  46 1.54 186 1.54
  45  0.916  0.417  0.250-  43 1.53  97 1.53  26 1.54 114 1.54
  46  0.750  0.417  0.084-  43 1.53  41 1.53  44 1.54  42 1.54
  47  0.748  0.584  0.252- 134 1.51  42 1.54 114 1.54  67 1.55
  48  0.916  0.584  0.084-  44 1.53  26 1.53  67 1.53  49 1.54
  49  0.000  0.667  1.000- 210 1.53  54 1.53 172 1.54  48 1.54
  50  1.000  0.834  0.167-  72 1.53  55 1.53  54 1.54  69 1.54
  51  0.165  0.667  0.165-  53 1.53  54 1.53  31 1.54  32 1.54
  52  0.167  0.834  1.000- 196 1.53  56 1.53  54 1.54 194 1.54
  53  0.248  0.751  0.248- 127 1.52  51 1.53 122 1.54  58 1.54
  54  0.083  0.750  0.083-  51 1.53  49 1.53  52 1.54  50 1.54
  55  0.083  0.917  0.250- 122 1.53  50 1.53  73 1.53   3 1.54
  56  0.250  0.917  0.083-  58 1.53  52 1.53   9 1.53   3 1.54
  57  0.333  0.667  0.999- 194 1.53  32 1.54 180 1.54  62 1.54
  58  0.333  0.834  0.166-  56 1.53  62 1.53  53 1.54  63 1.54
  59  0.500  0.667  0.166-  40 1.53  39 1.53  62 1.54  61 1.54
  60  0.500  0.834  1.000- 204 1.53  64 1.53  62 1.53 202 1.53
[...]
 200  0.500  0.667  0.834- 180 1.53 181 1.53 202 1.54 203 1.54
 201  0.501  0.836  0.669- 130 1.48 205 1.53 132 1.54 203 1.54
 202  0.584  0.750  0.917-  60 1.53 207 1.53  65 1.54 200 1.54
 203  0.417  0.749  0.749- 198 1.52 200 1.54 201 1.54 199 1.55
 204  0.417  0.917  0.917-   9 1.53 199 1.53  60 1.53 152 1.53
 205  0.583  0.919  0.752- 152 1.52 201 1.53 158 1.54 207 1.54
 206  0.669  0.669  0.669- 211 1.52 130 1.52 181 1.55 117 1.55 214 2.61
 207  0.667  0.834  0.834- 212 1.53 202 1.53 211 1.54 205 1.54
 208  0.835  0.667  0.835- 211 1.53 210 1.53 188 1.54 189 1.54
 209  0.834  0.834  0.667- 213 1.53 138 1.53 211 1.54 140 1.54
 210  0.917  0.750  0.917- 208 1.53  49 1.53 191 1.54  68 1.54
 211  0.752  0.751  0.752- 206 1.52 208 1.53 207 1.54 209 1.54
 212  0.750  0.917  0.917- 207 1.53  68 1.53  17 1.53 160 1.54
 213  0.917  0.917  0.750- 209 1.53 191 1.53 142 1.53 160 1.54
 214  0.500  0.613  0.500- 131 2.13 130 2.13 106 2.27 177 2.27 108 2.27 112 2.27 110 2.49 109 2.49
                           198 2.59 134 2.59 127 2.61 206 2.61

IMPORTANT INFORMATION: All symmetrisations will be switched off!
NOSYMM: (Re-)initialisation of all symmetry stuff for point group C_1.

                                     Primitive cell

  volume of cell :    1202.8529

  direct lattice vectors                    reciprocal lattice vectors
    10.635000229  0.000000000  0.000000000     0.094029147  0.000000000  0.000000000
     0.000000000 10.635000229  0.000000000     0.000000000  0.094029147  0.000000000
     0.000000000  0.000000000 10.635000229     0.000000000  0.000000000  0.094029147

  length of vectors
    10.635000229 10.635000229 10.635000229     0.094029147  0.094029147  0.094029147

  position of ions in fractional coordinates (direct lattice)
     0.000002238  0.000178628  0.999997750
     0.999632308  0.166845694  0.166537130
     0.166267116  0.000172632  0.166265393
     0.166538492  0.166845142  0.999629043
     0.249367466  0.083728568  0.249368744
     0.083130833  0.083623068  0.083128560
     0.082746890  0.250225073  0.249676128
     0.249675393  0.250225501  0.082744144
     0.333173037  0.000295886  0.999578563
     0.332762627  0.166426217  0.165598481
     0.499791423  0.001325673  0.165542418
     0.499998313  0.166929767  0.999997611
     0.583241245  0.083840278  0.249763835
     0.416532018  0.083840923  0.082468714
     0.416178513  0.249159309  0.248679823
     0.583276428  0.249910683  0.083103566
     0.666825159  0.000298282  0.000415659
     0.666616286  0.167001662  0.166780323
     0.833144415  0.000240951  0.166855558
     0.833462838  0.166845712  0.000367637
     0.916348174  0.083602229  0.250014613
     0.749985373  0.083602186  0.083651852
     0.749780462  0.250364941  0.250219523
     0.916515143  0.250309870  0.083484873
     0.000001558  0.333490766  0.999998485
     0.999285642  0.500189946  0.166388956
     0.165790249  0.333298749  0.165789767
     0.166391301  0.500191661  0.999278661
     0.248722482  0.416563912  0.248725363
     0.082913171  0.416935320  0.082909170
     0.082174630  0.583684512  0.249119872
     0.249118406  0.583685602  0.082167150
     0.333135544  0.333514063  0.999453378
     0.331541969  0.500058435  0.164818269
     0.499634984  0.332407333  0.165452184
     0.499996344  0.500268191  0.999993340
     0.582847999  0.416267443  0.249859589
     0.416327916  0.416743950  0.082733823
     0.415702009  0.582901728  0.248342366
     0.583202757  0.583525893  0.083648786
     0.666862071  0.333512847  0.000539950
     0.666114262  0.500345238  0.167363336
     0.833037768  0.333657246  0.166962241
     0.833611086  0.500189958  0.000714352
     0.916007552  0.417066557  0.250165028
     0.749834929  0.417066568  0.083992467
     0.748249571  0.583985437  0.251750387
     0.916464566  0.583674531  0.083535437
     0.000003718  0.666968489  0.999996272
     0.999555800  0.833610608  0.166554299
     0.165317215  0.667084054  0.165314940
     0.166558530  0.833608418  0.999547462
     0.247769773  0.750619607  0.247773015
     0.082726659  0.750408378  0.082721191
     0.082700487  0.917093440  0.249672442
     0.249671111  0.917092828  0.082695462
     0.333236259  0.666920679  0.999460618
     0.332921426  0.834046312  0.165658271
     0.499819945  0.666805194  0.166479091
     0.499996344  0.833666959  0.999994880
[...]
     0.500165592  0.666804165  0.833508792
     0.500811921  0.836471399  0.668574217
     0.583515651  0.750250369  0.916968286
     0.417041237  0.749480761  0.749057313
     0.416755512  0.917090481  0.916712986
     0.583493365  0.919156257  0.752173946
     0.669313193  0.668659614  0.669323335
     0.667073638  0.834046283  0.834339139
     0.834685114  0.667084034  0.834682788
     0.834341777  0.834046368  0.667078606
     0.917278836  0.750408377  0.917273321
     0.752227000  0.750619652  0.752230262
     0.750327597  0.917093465  0.917299537
     0.917304597  0.917092850  0.750328913
     0.499979199  0.613475281  0.500020611

  ion indices of the primitive-cell ions
   primitive index   ion index
                 1           1
[...]
[...]
    634      20.1310      0.00000
    635      20.1542      0.00000
    636      20.1772      0.00000
    637      20.1913      0.00000
    638      20.2007      0.00000
    639      20.2595      0.00000
    640      20.2830      0.00000
    641      20.3067      0.00000
    642      20.3141      0.00000
    643      20.3477      0.00000
    644      20.4177      0.00000
    645      20.4832      0.00000
    646      20.6109      0.00000
    647      20.7907      0.00000
    648      20.8890      0.00000

 soft charge-density along one line, spin component           1
         0         1         2         3         4         5         6         7         8         9
 total charge-density along one line

 soft charge-density along one line, spin component           2
         0         1         2         3         4         5         6         7         8         9
 total charge-density along one line

------------------------ aborting loop because EDIFF is reached ----------------------------------------

 only isotrope contributions calculated
  for stress because ISIF=1 (only pressure is correct)

  FORCE on cell =-STRESS in cart. coord.  units (eV):
  Direction    XX          YY          ZZ          XY          YZ          ZX
  Alpha Z  3287.54863  3287.54863  3287.54863
  Ewald  -12892.05208-12804.56438-12892.05237    -0.00055     0.00003    30.67279
  Hartree   965.87216  1003.06564   965.87219    -0.00438     0.00452    25.84739
  E(xc)   -3311.13204 -3310.92261 -3311.13203    -0.00002     0.00002    -0.16404
  Local   -1101.09762 -1221.83573 -1101.09768     0.01041    -0.01024   -59.88445
  n-local  -750.57502  -750.57502  -750.57502     0.00000     0.00000     0.00000
  augment   -76.17101   -76.17101   -76.17101     0.00000     0.00000     0.00000
  Kinetic 13926.90159 13934.99731 13926.90173     0.00451    -0.00451    24.39954
  Fock        0.00000     0.00000     0.00000     0.00000     0.00000     0.00000
  Total      49.29462    61.54283    49.29443     0.00996    -0.01019    20.87124
  in kB      65.65950    81.97388    65.65926     0.01327    -0.01357    27.80010

 VOLUME and BASIS-vectors are now :
  energy-cutoff  :      370.00
  volume of cell :     1202.85
      direct lattice vectors                 reciprocal lattice vectors
    10.635000229  0.000000000  0.000000000     0.094029147  0.000000000  0.000000000
     0.000000000 10.635000229  0.000000000     0.000000000  0.094029147  0.000000000
     0.000000000  0.000000000 10.635000229     0.000000000  0.000000000  0.094029147

  length of vectors
    10.635000229 10.635000229 10.635000229     0.094029147  0.094029147  0.094029147

 FORCES acting on ions:
    Electron-Ion                     Ewald-Force                    Non-Local-Force
   0.988E-02 0.128E+01 -.102E-01   -.990E-02 -.128E+01 0.998E-02   -.230E-03 0.406E-01 0.224E-03
   0.945E+00 0.288E+00 0.546E+00   -.972E+00 -.304E+00 -.550E+00   0.261E-01 0.343E-01 0.880E-02
   0.704E+00 0.134E+01 0.697E+00   -.678E+00 -.139E+01 -.670E+00   -.317E-01 0.740E-01 -.314E-01
   0.554E+00 0.288E+00 0.926E+00   -.558E+00 -.304E+00 -.953E+00   0.866E-02 0.344E-01 0.263E-01
   0.677E+00 -.286E-01 0.682E+00   -.637E+00 -.275E-01 -.642E+00   -.327E-01 0.393E-01 -.327E-01
   0.575E+00 -.298E+00 0.558E+00   -.555E+00 0.293E+00 -.538E+00   -.179E-01 -.193E-01 -.179E-01
   0.132E+01 -.143E+01 0.463E+00   -.133E+01 0.143E+01 -.432E+00   0.855E-02 -.161E-01 -.372E-01
   0.457E+00 -.143E+01 0.130E+01   -.426E+00 0.144E+01 -.131E+01   -.372E-01 -.162E-01 0.863E-02
   0.799E+00 0.178E+01 0.108E+01   -.814E+00 -.179E+01 -.105E+01   -.210E-01 0.913E-02 -.427E-01
   0.948E+00 0.534E+00 0.888E+00   -.959E+00 -.647E+00 -.952E+00   0.367E-01 0.121E+00 0.631E-01
   -.371E+01 0.934E+00 0.262E+00   0.360E+01 -.962E+00 -.158E+00   0.621E-01 0.716E-01 -.124E+00
   -.748E-02 -.111E+01 -.141E-01   0.756E-02 0.107E+01 0.137E-01   0.996E-04 0.515E-01 0.606E-04
   -.162E+01 0.123E+01 -.119E+01   0.164E+01 -.134E+01 0.119E+01   -.952E-02 0.885E-01 -.677E-02
   0.900E+00 0.636E+00 0.805E+00   -.836E+00 -.661E+00 -.818E+00   -.337E-01 0.172E-01 -.160E-01
   -.372E+01 0.390E+00 -.993E-01   0.382E+01 -.348E+00 0.686E-01   -.122E+00 -.919E-01 0.870E-03
   -.249E+01 -.177E+01 -.969E+00   0.250E+01 0.173E+01 0.942E+00   0.917E-03 0.420E-01 0.269E-01
   -.816E+00 0.179E+01 -.112E+01   0.831E+00 -.180E+01 0.109E+01   0.208E-01 0.888E-02 0.429E-01
   -.143E+01 -.134E+01 -.119E+01   0.142E+01 0.138E+01 0.125E+01   -.651E-02 -.205E-01 -.523E-01
   0.794E+00 0.181E+01 -.794E+00   -.805E+00 -.181E+01 0.806E+00   0.257E-01 0.365E-01 -.257E-01
   -.546E+00 0.288E+00 -.945E+00   0.550E+00 -.303E+00 0.972E+00   -.880E-02 0.343E-01 -.261E-01
   0.113E+01 0.161E+00 0.636E+00   -.115E+01 -.172E+00 -.602E+00   0.135E-01 -.463E-02 -.350E-01
   -.636E+00 0.161E+00 -.113E+01   0.602E+00 -.172E+00 0.115E+01   0.350E-01 -.462E-02 -.135E-01
   0.774E+00 -.319E+01 -.774E+00   -.792E+00 0.322E+01 0.792E+00   0.300E-01 -.495E-01 -.300E-01
   0.700E+00 -.164E+01 -.700E+00   -.724E+00 0.169E+01 0.723E+00   0.278E-01 -.622E-01 -.278E-01
   0.112E-01 0.369E+00 -.113E-01   -.113E-01 -.383E+00 0.112E-01   -.212E-04 0.300E-01 -.815E-05
   0.262E+01 0.608E+00 -.852E+00   -.265E+01 -.629E+00 0.886E+00   0.416E-01 0.424E-01 -.278E-01
   0.156E+01 0.268E+00 0.156E+01   -.164E+01 -.326E+00 -.164E+01   0.932E-01 0.877E-01 0.932E-01
   -.831E+00 0.624E+00 0.257E+01   0.864E+00 -.646E+00 -.261E+01   -.278E-01 0.424E-01 0.418E-01
   0.810E+00 -.227E+01 0.823E+00   -.757E+00 0.249E+01 -.771E+00   -.433E-01 -.217E+00 -.434E-01
   0.511E+00 -.203E+01 0.494E+00   -.530E+00 0.210E+01 -.513E+00   0.132E-01 -.883E-01 0.135E-01
   0.221E+01 -.210E+01 -.914E+00   -.223E+01 0.212E+01 0.897E+00   0.172E-01 -.415E-01 0.653E-02
   -.924E+00 -.210E+01 0.217E+01   0.907E+00 0.212E+01 -.219E+01   0.645E-02 -.417E-01 0.176E-01
   0.769E+00 -.225E+01 0.214E+01   -.788E+00 0.228E+01 -.222E+01   0.386E-01 -.202E-01 0.765E-01
   -.622E+00 -.130E+01 0.283E+01   0.617E+00 0.148E+01 -.285E+01   0.421E-01 -.127E+00 -.473E-02
   -.289E+01 -.312E+01 -.141E+00   0.310E+01 0.320E+01 0.246E+00   -.206E+00 -.576E-01 -.822E-01
   -.130E-01 -.261E+01 -.342E-01   0.129E-01 0.268E+01 0.340E-01   0.404E-03 -.884E-01 0.518E-03
   -.138E+02 -.100E+02 -.638E+01   0.143E+02 0.101E+02 0.643E+01   -.422E+00 -.100E+00 -.628E-01
   -.182E+01 -.261E+01 0.100E+01   0.189E+01 0.265E+01 -.932E+00   -.899E-01 -.480E-01 -.733E-01
   -.839E+01 -.772E+01 0.367E+01   0.854E+01 0.775E+01 -.420E+01   -.279E+00 -.158E+00 0.446E+00
   -.153E+01 -.657E+00 -.438E+01   0.156E+01 0.657E+00 0.446E+01   -.288E-01 0.147E-01 -.850E-01
   -.772E+00 -.226E+01 -.218E+01   0.791E+00 0.229E+01 0.225E+01   -.383E-01 -.202E-01 -.762E-01
   0.322E+00 -.482E+01 -.103E+02   -.240E+00 0.492E+01 0.106E+02   -.902E-01 -.121E+00 -.334E+00
   0.143E+01 -.220E+01 -.143E+01   -.146E+01 0.223E+01 0.146E+01   0.209E-01 -.232E-01 -.209E-01
   0.852E+00 0.608E+00 -.262E+01   -.886E+00 -.629E+00 0.265E+01   0.278E-01 0.424E-01 -.417E-01
   0.363E+01 -.342E+01 -.145E+01   -.373E+01 0.350E+01 0.150E+01   0.965E-01 -.833E-01 -.627E-01
   0.145E+01 -.342E+01 -.363E+01   -.150E+01 0.350E+01 0.373E+01   0.627E-01 -.833E-01 -.966E-01
   0.105E+02 0.281E+01 -.105E+02   -.110E+02 -.284E+01 0.110E+02   0.345E+00 -.253E+00 -.345E+00
   0.216E+01 -.148E+01 -.216E+01   -.218E+01 0.142E+01 0.218E+01   -.188E-02 -.647E-01 0.187E-02
   0.186E-01 0.215E+01 -.189E-01   -.185E-01 -.205E+01 0.185E-01   -.242E-03 0.193E-01 0.223E-03
   0.155E+01 0.198E+01 -.939E+00   -.151E+01 -.196E+01 0.944E+00   -.296E-01 0.291E-01 -.264E-01
   0.567E+00 0.241E+01 0.554E+00   -.521E+00 -.232E+01 -.508E+00   -.592E-01 -.372E-01 -.590E-01
   -.925E+00 0.198E+01 0.151E+01   0.930E+00 -.196E+01 -.147E+01   -.270E-01 0.295E-01 -.289E-01
   0.309E+01 -.150E+01 0.311E+01   -.323E+01 0.138E+01 -.325E+01   0.128E+00 0.173E-01 0.128E+00
   0.833E+00 -.150E+01 0.802E+00   -.823E+00 0.143E+01 -.792E+00   -.114E-01 0.360E-02 -.111E-01
   0.150E+01 0.696E+00 0.689E+00   -.148E+01 -.735E+00 -.643E+00   -.274E-01 0.153E-01 -.271E-01
   0.689E+00 0.690E+00 0.148E+01   -.644E+00 -.729E+00 -.145E+01   -.269E-01 0.152E-01 -.271E-01
   -.166E+01 0.751E+00 0.263E+01   0.170E+01 -.748E+00 -.264E+01   -.454E-01 -.204E-01 0.293E-01
   -.175E+01 0.196E+01 0.941E+00   0.185E+01 -.195E+01 -.744E+00   -.120E+00 -.252E-02 -.183E+00
   -.636E+01 0.121E+01 -.489E+01   0.650E+01 -.109E+01 0.505E+01   -.176E+00 -.159E+00 -.186E+00
   -.237E-01 0.310E+01 -.335E-01   0.241E-01 -.315E+01 0.332E-01   0.130E-03 0.264E-01 0.180E-03
[...]
   0.178E+02 0.409E+01 -.986E-01   -.180E+02 -.378E+01 0.230E+00   0.479E+00 -.216E+00 -.152E+00
   0.212E+01 0.230E+01 -.527E+00   -.214E+01 -.230E+01 0.476E+00   0.188E-01 0.272E-01 0.422E-01
   0.242E+01 0.961E+01 0.728E+01   -.246E+01 -.990E+01 -.753E+01   0.283E+00 0.161E+00 0.684E-01
   0.790E+00 0.370E+01 0.158E+01   -.724E+00 -.370E+01 -.159E+01   -.142E-02 -.323E-01 -.264E-01
   -.262E+00 -.253E-01 -.258E+01   -.139E+00 -.948E-01 0.245E+01   0.298E+00 0.125E+00 0.160E+00
   -.396E+01 0.575E+01 -.390E+01   0.450E+01 -.527E+01 0.444E+01   -.471E+00 -.258E+00 -.471E+00
   0.171E+01 0.195E+01 -.966E+00   -.182E+01 -.194E+01 0.768E+00   0.120E+00 -.265E-02 0.183E+00
   -.554E+00 0.241E+01 -.567E+00   0.508E+00 -.232E+01 0.521E+00   0.590E-01 -.372E-01 0.592E-01
   -.942E+00 0.196E+01 0.175E+01   0.744E+00 -.195E+01 -.185E+01   0.183E+00 -.253E-02 0.120E+00
   -.802E+00 -.150E+01 -.834E+00   0.792E+00 0.143E+01 0.823E+00   0.110E-01 0.360E-02 0.114E-01
   -.311E+01 -.150E+01 -.309E+01   0.325E+01 0.138E+01 0.323E+01   -.127E+00 0.173E-01 -.128E+00
   -.689E+00 0.696E+00 -.150E+01   0.643E+00 -.735E+00 0.148E+01   0.271E-01 0.153E-01 0.274E-01
   -.148E+01 0.690E+00 -.690E+00   0.145E+01 -.730E+00 0.644E+00   0.270E-01 0.152E-01 0.269E-01
   -.196E+00 -.272E+02 0.200E+00   0.206E+00 0.287E+02 -.204E+00   -.505E-02 -.137E+01 0.415E-02
   0.623E-02 -.448E+00 -.736E-02   0.623E-12 0.817E-13 0.154E-12   -.675E-02 0.454E+00 0.728E-02

 POSITION                                       TOTAL-FORCE (eV/Angst)
      0.00002      0.00190     10.63498        -0.000243      0.043639      0.000026
     10.63109      1.77440      1.77112        -0.001427      0.019722      0.004350
      1.76825      0.00184      1.76823        -0.005300      0.023994     -0.005146
      1.77114      1.77440     10.63106         0.004256      0.019822     -0.001423
      2.65202      0.89045      2.65204         0.007484     -0.017797      0.007636
      0.88410      0.88933      0.88407         0.001792     -0.025653      0.001846
      0.88001      2.66114      2.65531        -0.004678     -0.010225     -0.006851
      2.65530      2.66115      0.87998        -0.006848     -0.010117     -0.004740
      3.54330      0.00315     10.63052        -0.035133      0.004802     -0.012095
      3.53893      1.76994      1.76114         0.026823      0.007771     -0.001026
      5.31528      0.01410      1.76054        -0.052952      0.041772     -0.019521
      5.31748      1.77530     10.63497         0.000184      0.018086     -0.000327
      6.20277      0.89164      2.65624         0.018947     -0.019831     -0.011766
      4.42982      0.89165      0.87705         0.031520     -0.007757     -0.028098
      4.42606      2.64981      2.64471        -0.023491     -0.049021     -0.029880
      6.20314      2.65780      0.88381         0.006645     -0.001162     -0.000473
      7.09169      0.00317      0.00442         0.035254      0.004667      0.011749
      7.08946      1.77606      1.77371        -0.010484      0.013411      0.010587
      8.86049      0.00256      1.77451         0.014171      0.039745     -0.014175
      8.86388      1.77440      0.00391        -0.004432      0.019711      0.001174
      9.74536      0.88911      2.65891         0.000327     -0.015499     -0.000617
      7.97609      0.88911      0.88964         0.000700     -0.015478     -0.000570
      7.97392      2.66263      2.66108         0.012088     -0.012904     -0.011916
      9.74714      2.66205      0.88786         0.004322     -0.017371     -0.004500
      0.00002      3.54667     10.63498        -0.000108      0.017104     -0.000158
     10.62740      5.31952      1.76955         0.007848      0.022403      0.006305
      1.76318      3.54463      1.76317         0.008973      0.030765      0.008971
      1.76957      5.31954     10.62733         0.006214      0.022207      0.007951
      2.64516      4.43016      2.64519         0.008319      0.001106      0.007936
      0.88178      4.43411      0.88174        -0.006388     -0.018157     -0.006390
      0.87393      6.20748      2.64939        -0.007031     -0.021672     -0.009864
      2.64937      6.20750      0.87385        -0.009865     -0.021779     -0.006658
      3.54290      3.54692     10.62919         0.019836      0.007775     -0.003068
      3.52595      5.31812      1.75284         0.035998      0.050062     -0.025929
      5.31362      3.53515      1.75958         0.003967      0.025569      0.021282
      5.31746      5.32035     10.63493         0.000358     -0.017972      0.000249
      6.19859      4.42700      2.65726         0.051494     -0.008255     -0.005404
      4.42765      4.43207      0.87987        -0.025044     -0.010188     -0.004011
      4.42099      6.19916      2.64112        -0.117991     -0.130306     -0.088815
      6.20236      6.20580      0.88960         0.000187      0.014213     -0.006130
      7.09208      3.54691      0.00574        -0.019726      0.007627      0.002661
      7.08413      5.32117      1.77991        -0.008346     -0.017334     -0.046924
      8.85936      3.54844      1.77564        -0.010967      0.005960      0.010922
      8.86545      5.31952      0.00760        -0.006459      0.022425     -0.008226
      9.74174      4.43550      2.66051         0.000854     -0.002955     -0.012843
      7.97449      4.43550      0.89326         0.012986     -0.002932     -0.001154
      7.95763      6.21069      2.67737        -0.137087     -0.275478      0.137391
      9.74660      6.20738      0.88840        -0.024909     -0.121118      0.024668
      0.00004      7.09321     10.63496        -0.000145      0.123939     -0.000170
     10.63028      8.86545      1.77131         0.007408      0.046384     -0.021777
      1.75815      7.09444      1.75812        -0.012877      0.053017     -0.012831
      1.77135      8.86543     10.63019        -0.022147      0.046556      0.007960
      2.63503      7.98284      2.63507        -0.006311     -0.106446     -0.006733
      0.87980      7.98059      0.87974        -0.000572     -0.065672     -0.000418
      0.87952      9.75329      2.65527        -0.001706     -0.024626      0.019441
      2.65525      9.75328      0.87947         0.019491     -0.024744     -0.001316
      3.54397      7.09270     10.62926         0.002828     -0.016358      0.020599
      3.54062      8.87008      1.76178        -0.015601      0.004097      0.012625
      5.31559      7.09147      1.77051        -0.026035     -0.038667     -0.017416
      5.31746      8.86605     10.63495         0.000468     -0.020081     -0.000038
[...]
      5.31926      7.09146      8.86437         0.028855     -0.038053      0.019090
      5.32613      8.89587      7.11029         0.219033      0.094177     -0.021333
      6.20569      7.97891      9.75196         0.003761      0.026605     -0.008737
      4.43523      7.97073      7.96622         0.243753     -0.138048     -0.187234
      4.43219      9.75326      9.74924         0.064170     -0.032700     -0.034637
      6.20545      9.77523      7.99937        -0.108692      0.004180      0.029699
      7.11815      7.11120      7.11825         0.075033      0.232875      0.073132
      7.09433      8.87008      8.87320         0.015671      0.003882     -0.013214
      8.87688      7.09444      8.87685         0.012425      0.053023      0.012390
      8.87322      8.87008      7.09438        -0.013244      0.003874      0.015519
      9.75526      7.98059      9.75520         0.000083     -0.065688      0.000199
      7.99993      7.98284      7.99997         0.006302     -0.106610      0.005769
      7.97973      9.75329      9.75548        -0.019506     -0.024728      0.001234
      9.75553      9.75328      7.97975         0.000870     -0.024869     -0.019655
      5.31728      6.52431      5.31772         0.004400      0.108354      0.000886
    total drift:                               -0.000517      0.006183     -0.000081

  FREE ENERGIE OF THE ION-ELECTRON SYSTEM (eV)
  free  energy   TOTEN  =     -1928.66374392 eV

  energy  without entropy=    -1928.66374392  energy(sigma->0) =    -1928.66374392

 writing wavefunctions