 vasp.6.2.1 16May21 (build Sep 27 2021 21:11:04) gamma-only

 executed on             LinuxIFC date 2023.05.04  08:55:05

 INCAR:
   GGA = PE
   ISTART = 1
   ISPIN = 2
   ENCUT = 370
   ENAUG = 740
   EDIFF = 1E-5
   IBRION = 2
   POTIM = 0.2
   ALGO = All
   NSW = 0
   EDIFFG = -1E-4
   ISMEAR = 0
   SIGMA = 0.01
   ISIF = 2
   LREAL = .FALSE.
   ISYM = 0
   PREC = Accurate
   NCORE = 8
   NELM = 60
   NWRITE = 2
   SYMPREC = 1.0e-8
   LDAU = .TRUE.
   LDAUTYPE = 1
   LDAUL = 3
   LDAUU = 7
   LDAUJ = 1
   LDAUPRINT = 2
   LMAXMIX = 6

 POTCAR:    PAW_PBE Pr 23Dec2003
|           W    W    AA    RRRRR   N    N  II  N    N   GGGG   !!!           |
|           W    W   A  A   R    R  NN   N  II  NN   N  G    G  !!!           |
|           W    W  A    A  R    R  N N  N  II  N N  N  G       !!!           |
|           W WW W  AAAAAA  RRRRR   N  N N  II  N  N N  G  GGG   !            |
|           WW  WW  A    A  R   R   N   NN  II  N   NN  G    G                |
|           W    W  A    A  R    R  N    N  II  N    N   GGGG   !!!           |
|     You use a magnetic or noncollinear calculation, but did not specify     |
|     the initial magnetic moment with the MAGMOM tag. Note that a            |
|     default of 1 will be used for all atoms. This ferromagnetic setup       |
|     may break the symmetry of the crystal, in particular it may rule        |
|     out finding an antiferromagnetic solution. Thence, we recommend         |
|     setting the initial magnetic moment manually or verifying carefully     |
|     that this magnetic setup is desired.                                    |

   TITEL  = PAW_PBE Pr 23Dec2003
   POMASS =  140.907; ZVAL   =   13.000    mass and valenz
   ENMAX  =  272.941; ENMIN  =  204.706 eV

  PAW_PBE Pr 23Dec2003                  :

 POSCAR: Pr6
  positions in direct lattice
  velocities in cartesian coordinates
 exchange correlation table for  LEXCH =        8
   RHO(1)=    0.500       N(1)  =     2000
   RHO(2)=  100.500       N(2)  =     4000

 ion  position               nearest neighbor table
   1  0.801  0.643  0.515-   5 2.97
   2  0.206  0.258  0.930-   6 2.67   4 3.46
   3  0.118  0.247  0.350-
   4  0.618  0.388  0.756-   6 1.38   6 2.58   5 2.73   5 2.76   5 2.81   6 3.25   2 3.46   6 3.49

   5  0.953  0.039  0.662-   6 2.67   4 2.73   4 2.76   4 2.81   1 2.97   6 3.29
   6  0.304  0.426  0.787-   4 1.38   4 2.58   5 2.67   2 2.67   4 3.25   5 3.29   4 3.49

IMPORTANT INFORMATION: All symmetrisations will be switched off!
NOSYMM: (Re-)initialisation of all symmetry stuff for point group C_1.

                                     Primitive cell

  volume of cell :     223.6880

  direct lattice vectors                    reciprocal lattice vectors
     1.882736988 -3.260996120  0.000000000     0.265570817 -0.153327383  0.000000000
     1.882736988  3.260996120  0.000000000     0.265570817  0.153327383  0.000000000
     0.000000000  0.000000000 18.216826690     0.000000000  0.000000000  0.054894303

  length of vectors
     3.765473976  3.765473976 18.216826690     0.306654765  0.306654765  0.054894303

  position of ions in fractional coordinates (direct lattice)
     0.800906532  0.642927706  0.515255788
     0.205783663  0.257883264  0.930152141
     0.118266436  0.246605855  0.349823398
     0.617723719  0.387787241  0.756097218
     0.952985196  0.038849724  0.661961938
     0.304334455  0.425946209  0.786709517

  ion indices of the primitive-cell ions
   primitive index   ion index
                 1           1
                 2           2
                 3           3
                 4           4
                 5           5
                 6           6

 KPOINTS: 1 x 1 x 1 k-mesh (automatic generation o

Automatic generation of k-mesh.
 Grid dimensions read from file:
 generate k-points for:    1    1    1

 Generating k-lattice:

  Cartesian coordinates                     Fractional coordinates (reciprocal lattice)
     0.265570817 -0.153327383  0.000000000     1.000000000  0.000000000  0.000000000
     0.265570817  0.153327383  0.000000000     0.000000000  1.000000000  0.000000000
     0.000000000  0.000000000  0.054894303     0.000000000  0.000000000  1.000000000

  Length of vectors
     0.306654765  0.306654765  0.054894303

  Shift w.r.t. Gamma in fractional coordinates (k-lattice)
     0.000000000  0.000000000  0.000000000

 Subroutine IBZKPT returns following result:

 Found      1 irreducible k-points:

 Following reciprocal coordinates:
            Coordinates               Weight
  0.000000  0.000000  0.000000      1.000000

 Following cartesian coordinates:
            Coordinates               Weight
  0.000000  0.000000  0.000000      1.000000

 SYSTEM =  unknown system
 POSCAR =  Pr6

 Startparameter for this run:
   NWRITE =      2    write-flag & timer
   PREC   = accura    normal or accurate (medium, high low for compatibility)
   ISTART =      1    job   : 0-new  1-cont  2-samecut
   ICHARG =      0    charge: 1-file 2-atom 10-const
   ISPIN  =      2    spin polarized calculation?
   LNONCOLLINEAR =      F non collinear calculations
   LSORBIT =      F    spin-orbit coupling
   INIWAV =      1    electr: 0-lowe 1-rand  2-diag
   LASPH  =      F    aspherical Exc in radial PAW
 Electronic Relaxation 1
   ENCUT  =  370.0 eV  27.19 Ry    5.21 a.u.   5.91  5.91 28.57*2*pi/ulx,y,z
   ENINI  =  370.0     initial cutoff
   ENAUG  =  740.0 eV  augmentation charge cutoff
   NELM   =     60;   NELMIN=  2; NELMDL=  0     # of ELM steps
   EDIFF  = 0.1E-04   stopping-criterion for ELM
   LREAL  =      F    real-space projection
   NLSPLINE    = F    spline interpolate recip. space projectors
   LCOMPAT=      F    compatible to vasp.4.4
   GGA_COMPAT  = T    GGA compatible to vasp.4.4-vasp.4.6
   LMAXPAW     = -100 max onsite density
   LMAXMIX     =    6 max onsite mixed and CHGCAR
   VOSKOWN=      0    Vosko Wilk Nusair interpolation
   ROPT   =    0.00000
 Ionic relaxation
   EDIFFG = -.1E-03   stopping-criterion for IOM
   NSW    =      0    number of steps for IOM
   NBLOCK =      1;   KBLOCK =      1    inner block; outer block
   IBRION =     -1    ionic relax: 0-MD 1-quasi-New 2-CG
   NFREE  =      1    steps in history (QN), initial steepest desc. (CG)
   ISIF   =      2    stress and relaxation
   IWAVPR =     10    prediction:  0-non 1-charg 2-wave 3-comb
   ISYM   =      0    0-nonsym 1-usesym 2-fastsym
   LCORR  =      T    Harris-Foulkes like correction to forces

   POTIM  = 0.2000    time-step for ionic-motion
   TEIN   =    0.0    initial temperature
   TEBEG  =    0.0;   TEEND  =   0.0 temperature during run
   SMASS  =  -3.00    Nose mass-parameter (am)
   estimated Nose-frequenzy (Omega)   =  0.10E-29 period in steps = 0.31E+47 mass=  -0.324E-27a.u.
   SCALEE = 1.0000    scale energy and forces
   NPACO  =    256;   APACO  = 16.0  distance and # of slots for P.C.
   PSTRESS=    0.0 pullay stress

  Mass of Ions in am
   POMASS = 140.91
  Ionic Valenz
   ZVAL   =  13.00
  Atomic Wigner-Seitz radii
  virtual crystal weights
   VCA    =   1.00
   NELECT =      78.0000    total number of electrons
   NUPDOWN=      -1.0000    fix difference up-down

 DOS related values:
   EMIN   =  10.00;   EMAX   =-10.00  energy-range for DOS
   EFERMI =   0.00
   ISMEAR =     0;   SIGMA  =   0.01  broadening in eV -4-tet -1-fermi 0-gaus

 Electronic relaxation 2 (details)
   IALGO  =     58    algorithm
   LDIAG  =      T    sub-space diagonalisation (order eigenvalues)
   LSUBROT=      F    optimize rotation matrix (better conditioning)
   TURBO    =      0    0=normal 1=particle mesh
   IRESTART =      0    0=no restart 2=restart with 2 vectors
   NREBOOT  =      0    no. of reboots
   NMIN     =      0    reboot dimension
   EREF     =   0.00    reference energy to select bands
   IMIX   =      4    mixing-type and parameters
     AMIX     =   0.40;   BMIX     =  1.00
     AMIX_MAG =   1.60;   BMIX_MAG =  1.00
     AMIN     =   0.10
     WC   =   100.;   INIMIX=   1;  MIXPRE=   1;  MAXMIX= -45

 Intra band minimization:
   WEIMIN = 0.0000     energy-eigenvalue tresh-hold
   EBREAK =  0.49E-07  absolut break condition
   DEPER  =   0.30     relativ break condition

   TIME   =   0.40     timestep for ELM

  volume/ion in A,a.u.               =      37.28       251.59
  Fermi-wavevector in a.u.,A,eV,Ry     =   1.152282  2.177497 18.065190  1.327754
  Thomas-Fermi vector in A             =   2.288934

 Write flags
   LWAVE        =      T    write WAVECAR
   LDOWNSAMPLE  =      F    k-point downsampling of WAVECAR
   LCHARG       =      T    write CHGCAR
   LVTOT        =      F    write LOCPOT, total local potential
   LVHAR        =      F    write LOCPOT, Hartree potential only
   LELF         =      F    write electronic localiz. function (ELF)
   LORBIT       =      0    0 simple, 1 ext, 2 COOP (PROOUT), +10 PAW based schemes

 Dipole corrections
   LMONO  =      F    monopole corrections only (constant potential shift)
   LDIPOL =      F    correct potential (dipole corrections)
   IDIPOL =      0    1-x, 2-y, 3-z, 4-all directions
   EPSILON=  1.0000000 bulk dielectric constant

 LDA+U is selected, type is set to LDAUTYPE =  1
   angular momentum for each species LDAUL =     3
   U (eV)           for each species LDAUU =   7.0
   J (eV)           for each species LDAUJ =   1.0
 Exchange correlation treatment:
   GGA     =    PE    GGA type
   VOSKOWN=      0    Vosko Wilk Nusair interpolation
   LHFCALC =     F    Hartree Fock is set to
   LHFONE  =     F    Hartree Fock one center treatment
   AEXX    =    0.0000 exact exchange contribution

 Linear response parameters
   LEPSILON=     F    determine dielectric tensor
   LRPA    =     F    only Hartree local field effects (RPA)
   LNABLA  =     F    use nabla operator in PAW spheres
   LVEL    =     F    velocity operator in full k-point grid
   LINTERFAST=   F  fast interpolation
   KINTER  =     0    interpolate to denser k-point grid
   CSHIFT  =0.1000    complex shift for real part using Kramers Kronig
   OMEGAMAX=  -1.0    maximum frequency
   DEG_THRESHOLD= 0.2000000E-02 threshold for treating states as degnerate
   RTIME   =   -0.100 relaxation time in fs
  (WPLASMAI=    0.000 imaginary part of plasma frequency in eV, 0.658/RTIME)
   DFIELD  = 0.0000000 0.0000000 0.0000000 field for delta impulse in time

 Orbital magnetization related:
   ORBITALMAG=     F  switch on orbital magnetization
   LCHIMAG   =     F  perturbation theory with respect to B field
   DQ        =  0.001000  dq finite difference perturbation B field
   LLRAUG    =     F  two centre corrections for induced B field

 Static calculation
 charge density and potential will be updated during run
 spin polarized calculation
 Conjugate gradient for all bands (Freysoldt, et al. PRB 79, 241103 (2009))
 preconditioned conjugated gradient
 perform sub-space diagonalisation
    before iterative eigenvector-optimisation
 modified Broyden-mixing scheme, WC =      100.0
 initial mixing is a Kerker type mixing with AMIX =  0.4000 and BMIX =      1.0000
 Hartree-type preconditioning will be used
 using additional bands           12
 reciprocal scheme for non local part
[...]
  o =  0.1150  v = -0.0647  0.4728 -0.2406  0.4216 -0.1039 -0.7244 -0.0339  0.0000  0.0000  0.0000  0.0000  0.0000  0.0000  0.0000      0.0000  0.0000  0.0000  0.0000  0.0000  0.0000  0.0000  0.0000  0.0000  0.0000  0.0000  0.0000  0.0000  0.0000
  o =  0.1164  v =  0.0000  0.0000  0.0000  0.0000  0.0000  0.0000  0.0000  0.0528  0.0202 -0.4023  0.8906  0.1355  0.0428  0.1468      0.0000  0.0000  0.0000  0.0000  0.0000  0.0000  0.0000  0.0000  0.0000  0.0000  0.0000  0.0000  0.0000  0.0000
  o =  0.1292  v = -0.0605  0.5130  0.5020  0.0841  0.4895  0.1304  0.4663  0.0000  0.0000  0.0000  0.0000  0.0000  0.0000  0.0000      0.0000  0.0000  0.0000  0.0000  0.0000  0.0000  0.0000  0.0000  0.0000  0.0000  0.0000  0.0000  0.0000  0.0000
  o =  0.1397  v =  0.0000  0.0000  0.0000  0.0000  0.0000  0.0000  0.0000 -0.0730 -0.2316  0.5871  0.2355  0.0038  0.7352  0.0208      0.0000  0.0000  0.0000  0.0000  0.0000  0.0000  0.0000  0.0000  0.0000  0.0000  0.0000  0.0000  0.0000  0.0000
  o =  0.1876  v =  0.1527  0.5027  0.4137 -0.3858 -0.4482  0.0379 -0.4492  0.0000  0.0000  0.0000  0.0000  0.0000  0.0000  0.0000      0.0000  0.0000  0.0000  0.0000  0.0000  0.0000  0.0000  0.0000  0.0000  0.0000  0.0000  0.0000  0.0000  0.0000
  o =  0.1940  v =  0.0000  0.0000  0.0000  0.0000  0.0000  0.0000  0.0000  0.0993 -0.2094 -0.1688 -0.2868  0.6244  0.1489  0.6508      0.0000  0.0000  0.0000  0.0000  0.0000  0.0000  0.0000  0.0000  0.0000  0.0000  0.0000  0.0000  0.0000  0.0000
  o =  0.2448  v =  0.9669  0.0782 -0.1729  0.0801  0.0712  0.0529  0.1216  0.0000  0.0000  0.0000  0.0000  0.0000  0.0000  0.0000      0.0000  0.0000  0.0000  0.0000  0.0000  0.0000  0.0000  0.0000  0.0000  0.0000  0.0000  0.0000  0.0000  0.0000
  o =  0.2641  v =  0.0000  0.0000  0.0000  0.0000  0.0000  0.0000  0.0000  0.9844 -0.0719  0.1108  0.0160 -0.0229 -0.0153 -0.1121      0.0000  0.0000  0.0000  0.0000  0.0000  0.0000  0.0000  0.0000  0.0000  0.0000  0.0000  0.0000  0.0000  0.0000
  o =  0.4247  v = -0.0300 -0.0243  0.0435  0.0105 -0.7070  0.0470  0.7031  0.0000  0.0000  0.0000  0.0000  0.0000  0.0000  0.0000      0.0000  0.0000  0.0000  0.0000  0.0000  0.0000  0.0000  0.0000  0.0000  0.0000  0.0000  0.0000  0.0000  0.0000
  o =  0.4291  v =  0.0000  0.0000  0.0000  0.0000  0.0000  0.0000  0.0000 -0.0585 -0.0013 -0.0315 -0.0064  0.7140  0.0369 -0.6960      0.0000  0.0000  0.0000  0.0000  0.0000  0.0000  0.0000  0.0000  0.0000  0.0000  0.0000  0.0000  0.0000  0.0000

[...]

 eigenvalue-minimisations  :     0
 total energy-change (2. order) : 0.1167452E+05  (-0.1634572E+06)
 number of electron      78.0000000 magnetization       0.0000000
 augmentation part       37.4978831 magnetization       0.1883400

 Free energy of the ion-electron system (eV)
  alpha Z        PSCENC =       412.77266595
  Ewald energy   TEWEN  =      2536.40998733
  -Hartree energ DENC   =      -206.36420949
  -exchange      EXHF   =         0.00000000
  -V(xc)+E(xc)   XCENC  =       206.00885004
  PAW double counting   =      2533.57242757    -2574.59636199
  entropy T*S    EENTRO =        -0.00000000
  eigenvalues    EBANDS =       999.06012217
  atomic energy  EATOM  =      7767.83469820
  free energy    TOTEN  =     11674.52298253 eV

  energy without entropy =    11674.52298253  energy(sigma->0) =    11674.52298253

[...]

 eigenvalue-minimisations  :     0
 total energy-change (2. order) :-0.7269382E+04  (-0.1372772E+05)
 number of electron      78.0000005 magnetization       1.9999960
 augmentation part       22.8264003 magnetization       0.6870075

[...]

 eigenvalue-minimisations  :     0
 total energy-change (2. order) :-0.1313151E+04  ( 0.5367408E+03)
 number of electron      78.0000007 magnetization       1.9999997
 augmentation part       46.0358991 magnetization       1.6100838

[...]

 eigenvalue-minimisations  :     0
 total energy-change (2. order) : 0.2314050E+04  (-0.2179232E+04)
 number of electron      77.9999999 magnetization      -2.0000002
 augmentation part       44.1000173 magnetization      -0.0281181

[...]

--------------------------------------- Iteration      1(  60)  ---------------------------------------

[...]

atom =   6  type =  1  l = 3

 onsite density matrix

[...]

  0.5670 -0.0170  0.0603  0.0349  0.0537  0.0126  0.1025
 -0.0170  0.8297 -0.0796 -0.0499 -0.0145  0.0880 -0.0427
  0.0603 -0.0796  0.4709 -0.0364  0.0917 -0.0424 -0.0849
  0.0349 -0.0499 -0.0364  0.7186 -0.0577  0.0997 -0.0844
  0.0537 -0.0145  0.0917 -0.0577  0.7137  0.0899 -0.1106
  0.0126  0.0880 -0.0424  0.0997  0.0899  0.6892  0.0696
  0.1025 -0.0427 -0.0849 -0.0844 -0.1106  0.0696  0.6987

 occupancies and eigenvectors

  o =  0.3508  v =  0.0000  0.0000  0.0000  0.0000  0.0000  0.0000  0.0000 -0.4580  0.1997  0.5962  0.3185  0.1694 -0.1967  0.4754      0.0000  0.0000  0.0000  0.0000  0.0000  0.0000  0.0000  0.0000  0.0000  0.0000  0.0000  0.0000  0.0000  0.0000
  o =  0.3633  v =  0.0787 -0.6466 -0.1253  0.3880  0.3520 -0.5121  0.1526  0.0000  0.0000  0.0000  0.0000  0.0000  0.0000  0.0000      0.0000  0.0000  0.0000  0.0000  0.0000  0.0000  0.0000  0.0000  0.0000  0.0000  0.0000  0.0000  0.0000  0.0000
  o =  0.4268  v =  0.0000  0.0000  0.0000  0.0000  0.0000  0.0000  0.0000  0.0833 -0.0317  0.6659 -0.2439 -0.5005  0.4365 -0.2193      0.0000  0.0000  0.0000  0.0000  0.0000  0.0000  0.0000  0.0000  0.0000  0.0000  0.0000  0.0000  0.0000  0.0000
  o =  0.5153  v = -0.1109  0.1064 -0.1237 -0.5030  0.4992 -0.3346 -0.5889  0.0000  0.0000  0.0000  0.0000  0.0000  0.0000  0.0000      0.0000  0.0000  0.0000  0.0000  0.0000  0.0000  0.0000  0.0000  0.0000  0.0000  0.0000  0.0000  0.0000  0.0000
  o =  0.5777  v =  0.0000  0.0000  0.0000  0.0000  0.0000  0.0000  0.0000  0.7733  0.3192  0.2393  0.2510 -0.0572 -0.4201 -0.0106      0.0000  0.0000  0.0000  0.0000  0.0000  0.0000  0.0000  0.0000  0.0000  0.0000  0.0000  0.0000  0.0000  0.0000
  o =  0.6117  v =  0.3908  0.5237  0.3158  0.3223  0.5845  0.0168  0.1654  0.0000  0.0000  0.0000  0.0000  0.0000  0.0000  0.0000      0.0000  0.0000  0.0000  0.0000  0.0000  0.0000  0.0000  0.0000  0.0000  0.0000  0.0000  0.0000  0.0000  0.0000
  o =  0.6850  v =  0.8696 -0.0332 -0.1481 -0.2857 -0.3008 -0.2190 -0.0251  0.0000  0.0000  0.0000  0.0000  0.0000  0.0000  0.0000      0.0000  0.0000  0.0000  0.0000  0.0000  0.0000  0.0000  0.0000  0.0000  0.0000  0.0000  0.0000  0.0000  0.0000
  o =  0.7736  v =  0.0000  0.0000  0.0000  0.0000  0.0000  0.0000  0.0000 -0.3849  0.1177 -0.1112  0.4174 -0.4983 -0.3519 -0.5285      0.0000  0.0000  0.0000  0.0000  0.0000  0.0000  0.0000  0.0000  0.0000  0.0000  0.0000  0.0000  0.0000  0.0000
  o =  0.7966  v =  0.1053  0.0309  0.0593  0.5953 -0.2454  0.0203 -0.7546  0.0000  0.0000  0.0000  0.0000  0.0000  0.0000  0.0000      0.0000  0.0000  0.0000  0.0000  0.0000  0.0000  0.0000  0.0000  0.0000  0.0000  0.0000  0.0000  0.0000  0.0000
  o =  0.8075  v =  0.0000  0.0000  0.0000  0.0000  0.0000  0.0000  0.0000 -0.1788  0.2948  0.0772 -0.7703  0.0183 -0.5213 -0.0990      0.0000  0.0000  0.0000  0.0000  0.0000  0.0000  0.0000  0.0000  0.0000  0.0000  0.0000  0.0000  0.0000  0.0000
  o =  0.8438  v =  0.2388 -0.5252  0.2273 -0.1598  0.3070  0.6812 -0.1779  0.0000  0.0000  0.0000  0.0000  0.0000  0.0000  0.0000      0.0000  0.0000  0.0000  0.0000  0.0000  0.0000  0.0000  0.0000  0.0000  0.0000  0.0000  0.0000  0.0000  0.0000
  o =  0.8582  v =  0.0000  0.0000  0.0000  0.0000  0.0000  0.0000  0.0000  0.0375 -0.0463 -0.2725 -0.0887 -0.6847 -0.0978  0.6603      0.0000  0.0000  0.0000  0.0000  0.0000  0.0000  0.0000  0.0000  0.0000  0.0000  0.0000  0.0000  0.0000  0.0000
  o =  0.8821  v = -0.0663 -0.1355  0.8900 -0.1761 -0.2006 -0.3363 -0.0275  0.0000  0.0000  0.0000  0.0000  0.0000  0.0000  0.0000      0.0000  0.0000  0.0000  0.0000  0.0000  0.0000  0.0000  0.0000  0.0000  0.0000  0.0000  0.0000  0.0000  0.0000
  o =  0.8930  v =  0.0000  0.0000  0.0000  0.0000  0.0000  0.0000  0.0000 -0.0610  0.8685 -0.2263  0.0258 -0.0114  0.4349  0.0270      0.0000  0.0000  0.0000  0.0000  0.0000  0.0000  0.0000  0.0000  0.0000  0.0000  0.0000  0.0000  0.0000  0.0000

 eigenvalue-minimisations  :     0
 total energy-change (2. order) :-0.6459345E+02  (-0.1435806E+02)
 number of electron      78.0000006 magnetization      -2.0000001
 augmentation part       47.2512900 magnetization      -0.3745862

 Free energy of the ion-electron system (eV)
  alpha Z        PSCENC =       412.77266595
  Ewald energy   TEWEN  =      2536.40998733
  -Hartree energ DENC   =     -9737.58249328
  -exchange      EXHF   =         0.00000000
  -V(xc)+E(xc)   XCENC  =       311.32617654
  PAW double counting   =      7773.92381115    -8457.87813001
  entropy T*S    EENTRO =        -0.00000000
  eigenvalues    EBANDS =       812.33324560
  atomic energy  EATOM  =      7767.83469820
  free energy    TOTEN  =      1419.13996147 eV

  energy without entropy =     1419.13996147  energy(sigma->0) =     1419.13996147

  average scaling for gradient   0.0197

 average (electrostatic) potential at core
  the test charge radii are     1.1535
  (the norm of the test charge is              1.0000)
       1   4.4567       2-165.3405       3  76.8447       4-131.5041       5 -56.9909
       6-153.8258

 E-fermi :  31.5025     XC(G=0):  -9.0931     alpha+bet :-12.6241

 Fermi energy:        31.5025445323

[...]

 k-point     1 :       0.0000    0.0000    0.0000
  band No.  band energies     occupation
      1    -125.9718      1.00000
      2    -121.4976      1.00000
      3     -96.6738      1.00000
      4     -86.4771      1.00000
      5     -81.0053      1.00000
      6     -77.7077      1.00000
      7     -73.8520      1.00000
      8     -72.5438      1.00000
      9     -70.3991      1.00000
     10     -68.8228      1.00000
     11     -65.9993      1.00000
     12     -65.0378      1.00000
     13     -58.5072      1.00000
     14     -58.1220      1.00000
     15     -51.6417      1.00000
     16     -47.7562      1.00000
     17     -40.3724      1.00000
     18     -39.4405      1.00000
     19     -31.4534      1.00000
     20     -18.2099      1.00000
     21      -1.2471      1.00000
     22       2.2703      1.00000
     23       5.5616      1.00000
     24       6.2677      1.00000
     25      13.5404      1.00000
     26      15.5903      1.00000
     27      22.9679      1.00000
     28      28.6160      1.00000
     29      36.8281      1.00000
     30      40.9024      1.00000
     31      41.1407      1.00000
     32      42.9513      1.00000
     33      61.4789      1.00000
     34      64.8067      1.00000
     35      64.9618      1.00000
     36      68.2107      1.00000
     37      73.0246      1.00000
     38      73.5449      1.00000
     39      65.1371      0.00000
     40      71.7949      0.00000
     41      72.2282      0.00000
     42      74.7240      0.00000
     43      77.0396      0.00000
     44      77.3312      0.00000
     45      77.4649      0.00000
     46      78.8015      0.00000
     47      82.1814      0.00000
     48      97.9179      0.00000
     49     105.9911      0.00000
     50     111.9428      0.00000
     51     125.7467      0.00000
 Fermi energy:        31.5025445323

 spin component 2

 k-point     1 :       0.0000    0.0000    0.0000
  band No.  band energies     occupation
      1    -125.5345      1.00000
      2    -121.5030      1.00000
      3     -97.0100      1.00000
      4     -87.5964      1.00000
      5     -83.4192      1.00000
      6     -80.8176      1.00000
      7     -74.7817      1.00000
      8     -73.7883      1.00000
      9     -72.5161      1.00000
     10     -69.1176      1.00000
     11     -67.5637      1.00000
     12     -65.7450      1.00000
     13     -63.6890      1.00000
     14     -57.4646      1.00000
     15     -55.3087      1.00000
     16     -47.0354      1.00000
     17     -43.4459      1.00000
     18     -40.6367      1.00000
     19     -26.3999      1.00000
     20     -16.0378      1.00000
     21     -10.6738      1.00000
     22      -7.5175      1.00000
     23      -2.0453      1.00000
     24      -1.7321      1.00000
     25       0.0925      1.00000
     26      11.4610      1.00000
     27      13.3136      1.00000
     28      14.4614      1.00000
     29      18.6733      1.00000
     30      22.5978      1.00000
     31      30.4202      1.00000
     32      37.4347      1.00000
     33      43.6745      1.00000
     34      56.3885      1.00000
     35      67.7330      1.00000
     36      67.8984      1.00000
     37      68.9951      1.00000
     38      69.9477      1.00000
     39      71.5082      1.00000
     40      73.2053      1.00000
     41      63.5282      0.00000
     42      68.7661      0.00000
     43      70.6389      0.00000
     44      75.9278      0.00000
     45      75.9685      0.00000
     46      77.4357      0.00000
     47      86.6907      0.00000
     48     101.5336      0.00000
     49     101.9829      0.00000
     50     126.2430      0.00000
     51     137.0602      0.00000

 soft charge-density along one line, spin component           1
         0         1         2         3         4         5         6         7         8         9
 total charge-density along one line

 soft charge-density along one line, spin component           2
         0         1         2         3         4         5         6         7         8         9
 total charge-density along one line

------------------------ aborting loop EDIFF was not reached (unconverged)  ----------------------------

  FORCE on cell =-STRESS in cart. coord.  units (eV):
  Direction    XX          YY          ZZ          XY          YZ          ZX
  Alpha Z   412.77267   412.77267   412.77267
  Ewald    6568.99620  7280.39220-11312.98120  -520.12688   451.09441  -146.19648
  Hartree 13363.54690 13607.97551-11657.83082  -224.96736   162.29032   -36.26742
  E(xc)    -344.90656  -344.65367  -344.36330    -0.10582     0.25730     0.02775
  Local  -19138.31359-19964.28661 21492.50909   665.46270  -533.94531   142.01373
  n-local   807.68557   903.48526   808.99081    36.30352    41.84822    21.92253
  augment   260.60121   185.07455   301.53941    52.24969   -46.08440    18.88713
  Kinetic   353.26930   363.32858   475.07738    -2.92206    -1.80966    -3.19509
  Fock        0.00000     0.00000     0.00000     0.00000     0.00000     0.00000
  Total    2283.65169  2444.08848   175.71403     5.89379    73.65088    -2.80785
  in kB   16356.77909 17505.91631  1258.56129    42.21456   527.52845   -20.11139

 VOLUME and BASIS-vectors are now :
  energy-cutoff  :      370.00
  volume of cell :      223.69
      direct lattice vectors                 reciprocal lattice vectors
     1.882736988 -3.260996120  0.000000000     0.265570817 -0.153327383  0.000000000
     1.882736988  3.260996120  0.000000000     0.265570817  0.153327383  0.000000000
     0.000000000  0.000000000 18.216826690     0.000000000  0.000000000  0.054894303

  length of vectors
     3.765473976  3.765473976 18.216826690     0.306654765  0.306654765  0.054894303

 FORCES acting on ions:
    Electron-Ion                     Ewald-Force                    Non-Local-Force
   0.153E+02 0.123E+02 0.222E+04   -.184E+02 -.142E+02 -.148E+04   0.321E+01 0.219E+01 0.157E+03
   0.381E+02 0.522E+01 -.260E+04   -.268E+02 -.478E+01 0.232E+04   -.852E+01 0.850E+00 -.168E+03
   0.187E+00 0.158E+01 0.130E+04   0.198E+01 0.156E+01 -.148E+04   -.729E+01 -.161E+02 0.189E+02
   -.269E+03 0.611E+03 -.487E+02   0.346E+03 -.786E+03 0.195E+03   -.564E+02 0.127E+03 0.312E+03
   0.273E+02 -.131E+02 0.178E+04   -.183E+02 0.142E+02 -.105E+04   0.417E+01 0.540E+00 0.338E+03
   0.198E+03 -.610E+03 -.129E+04   -.285E+03 0.789E+03 0.149E+04   0.273E+02 -.886E+02 0.132E+03
   0.983E+01 0.659E+01 0.136E+04   0.000E+00 0.000E+00 -.227E-12   -.375E+02 0.255E+02 0.790E+03

 POSITION                                       TOTAL-FORCE (eV/Angst)
      2.71836     -0.51517      9.38633         4.715533     -5.017394    541.109773
      0.87296      0.16990     16.94442         7.429887     -4.049184   -802.335102
      0.68696      0.41851      6.37267        -0.539429    -18.290154   -518.478278
      1.89311     -0.74982     13.77369        24.693852    -53.424921    100.480504
      1.86736     -2.98099     12.05885        17.801750     -3.685071    710.198205
      1.37493      0.39658     14.33135       -54.101594     84.466724    -30.975102
    total drift:                              -27.673566     32.061610   2150.350561

  FREE ENERGIE OF THE ION-ELECTRON SYSTEM (eV)
  free  energy   TOTEN  =      1419.13996147 eV

  energy  without entropy=     1419.13996147  energy(sigma->0) =     1419.13996147

 writing wavefunctions