 vasp.6.2.1 16May21 (build Sep 27 2021 21:11:04) gamma-only

 executed on             LinuxIFC date 2023.05.04  06:34:50

 INCAR:
   GGA = PE
   ISTART = 1
   ISPIN = 2
   ENCUT = 370
   ENAUG = 740
   EDIFF = 1E-5
   IBRION = 2
   POTIM = 0.2
   ALGO = All
   NSW = 0
   EDIFFG = -1E-2
   ISMEAR = 0
   SIGMA = 0.01
   ISIF = 1
   LREAL = .FALSE.
   ISYM = 0
   PREC = Accurate
   LDAU = .TRUE.
   LDAUTYPE = 1
   LDAUL = -1 3
   LDAUU = 0.00 7
   LDAUJ = 0.00 1
   LDAUPRINT = 2
   LMAXMIX = 6
   NCORE = 8
   NELM = 60
   NWRITE = 2
   SYMPREC = 1.0e-8

 POTCAR:    PAW_PBE C 08Apr2002
 POTCAR:    PAW_PBE Pr 23Dec2003
|           W    W    AA    RRRRR   N    N  II  N    N   GGGG   !!!           |
|           W    W   A  A   R    R  NN   N  II  NN   N  G    G  !!!           |
|           W    W  A    A  R    R  N N  N  II  N N  N  G       !!!           |
|           W WW W  AAAAAA  RRRRR   N  N N  II  N  N N  G  GGG   !            |
|           WW  WW  A    A  R   R   N   NN  II  N   NN  G    G                |
|           W    W  A    A  R    R  N    N  II  N    N   GGGG   !!!           |
|     You use a magnetic or noncollinear calculation, but did not specify     |
|     the initial magnetic moment with the MAGMOM tag. Note that a            |
|     default of 1 will be used for all atoms. This ferromagnetic setup       |
|     may break the symmetry of the crystal, in particular it may rule        |
|     out finding an antiferromagnetic solution. Thence, we recommend         |
|     setting the initial magnetic moment manually or verifying carefully     |
|     that this magnetic setup is desired.                                    |

   TITEL  = PAW_PBE C 08Apr2002
   POMASS =   12.011; ZVAL   =    4.000    mass and valenz
   ENMAX  =  400.000; ENMIN  =  300.000 eV

   TITEL  = PAW_PBE Pr 23Dec2003
   POMASS =  140.907; ZVAL   =   13.000    mass and valenz
   ENMAX  =  272.941; ENMIN  =  204.706 eV

  PAW_PBE C 08Apr2002                   :
  PAW_PBE Pr 23Dec2003                  :

 POSCAR: 3D\Atomistic
  positions in direct lattice
  velocities in cartesian coordinates
 exchange correlation table for  LEXCH =        8
   RHO(1)=    0.500       N(1)  =     2000
   RHO(2)=  100.500       N(2)  =     4000

 ion  position               nearest neighbor table
   1  0.000  0.000  1.000-  72 1.53   6 1.53 163 1.53 197 1.53
   2  0.000  0.167  0.166-  21 1.53   6 1.53  24 1.53   7 1.53
   3  0.167  0.000  0.166-  56 1.53   5 1.53  55 1.53   6 1.53
   4  0.167  0.167  1.000- 147 1.53   8 1.53 149 1.53   6 1.53
   5  0.250  0.084  0.250-  81 1.53   3 1.53  10 1.53  76 1.53
   6  0.083  0.084  0.083-   4 1.53   2 1.53   1 1.53   3 1.53
   7  0.083  0.250  0.250-  76 1.53  97 1.53  27 1.53   2 1.53
   8  0.250  0.250  0.083-  33 1.53  27 1.53  10 1.53   4 1.53
   9  0.333  0.001  0.000- 205 1.53  14 1.53 147 1.53  56 1.53
  10  0.333  0.167  0.166-  15 1.53  14 1.53   8 1.53   5 1.53
  11  0.500  0.001  0.165-  63 1.52  14 1.53  64 1.54  13 1.54
  12  0.500  0.167  0.000- 157 1.53  14 1.53 155 1.53  16 1.53
  13  0.584  0.084  0.249-  18 1.53  84 1.53  89 1.53  11 1.54
  14  0.417  0.084  0.083-  11 1.53  12 1.53  10 1.53   9 1.53
  15  0.417  0.249  0.249- 105 1.53  10 1.53  84 1.53  35 1.54
  16  0.584  0.250  0.083-  35 1.53  12 1.53  18 1.53  41 1.53
  17  0.667  0.000  1.000-  64 1.53 213 1.53 155 1.53  22 1.53
  18  0.667  0.167  0.166-  13 1.53  23 1.53  16 1.53  22 1.53
  19  0.834  0.000  0.166-  71 1.53  72 1.53  21 1.53  22 1.53
  20  0.834  0.167  1.000-  22 1.53 163 1.53  24 1.53 165 1.53
  21  0.917  0.084  0.250-  92 1.53  73 1.53  19 1.53   2 1.53
  22  0.750  0.084  0.083-  18 1.53  17 1.53  19 1.53  20 1.53
  23  0.750  0.250  0.250- 112 1.53  92 1.53  18 1.53  43 1.53
  24  0.917  0.250  0.083-  25 1.53  20 1.53   2 1.53  43 1.53
  25  0.000  0.333  1.000-  30 1.53 187 1.53 149 1.53  24 1.53
  26  1.000  0.500  0.166-  31 1.53  48 1.53  30 1.53  45 1.53
  27  0.167  0.333  0.166-  29 1.53  30 1.53   8 1.53   7 1.53
  28  0.166  0.500  0.000-  30 1.53  32 1.53 171 1.53 173 1.54
  29  0.250  0.417  0.249-  27 1.53  34 1.54 105 1.54 100 1.54
  30  0.083  0.417  0.083-  28 1.53  27 1.53  26 1.53  25 1.53
  31  0.083  0.583  0.249- 100 1.53  26 1.53 120 1.53  51 1.54
  32  0.250  0.584  0.083-  57 1.53  28 1.53  51 1.53  34 1.54
  33  0.333  0.333  0.000-   8 1.53  38 1.53 171 1.53 157 1.54
  34  0.333  0.500  0.166-  29 1.54  38 1.54  32 1.54  39 1.54
  35  0.500  0.333  0.166-  37 1.53  16 1.53  38 1.53  15 1.54
  36  0.500  0.500  0.000-  38 1.53 179 1.53  40 1.53 181 1.53
  37  0.584  0.415  0.248- 108 1.53  35 1.53 112 1.54  42 1.54
  38  0.417  0.417  0.083-  36 1.53  33 1.53  35 1.53  34 1.54
  39  0.417  0.584  0.249-  59 1.53  34 1.54 128 1.54 108 1.54
  40  0.584  0.583  0.083-  65 1.53  42 1.53  36 1.53  59 1.53
  41  0.667  0.333  1.000- 179 1.53 165 1.53  16 1.53  46 1.53
  42  0.667  0.500  0.166-  46 1.53  40 1.53  47 1.54  37 1.54
  43  0.834  0.333  0.166-  45 1.53  46 1.53  23 1.53  24 1.53
  44  0.834  0.500  0.000- 189 1.53  48 1.53 187 1.53  46 1.53
  45  0.917  0.417  0.250- 115 1.53  43 1.53  26 1.53  97 1.53
  46  0.750  0.417  0.083-  42 1.53  43 1.53  44 1.53  41 1.53
  47  0.752  0.584  0.248-  67 1.52 135 1.53  42 1.54 115 1.54
  48  0.917  0.584  0.083-  67 1.53  49 1.53  26 1.53  44 1.53
  49  1.000  0.667  0.000- 173 1.53  48 1.53  54 1.53 211 1.53
  50  0.000  0.834  0.166-  69 1.53  55 1.53  54 1.53  72 1.53
  51  0.166  0.667  0.166-  53 1.53  54 1.53  32 1.53  31 1.54
  52  0.167  0.834  1.000- 195 1.53 197 1.53  54 1.53  56 1.53
  53  0.248  0.750  0.248- 128 1.53  51 1.53 123 1.54  58 1.54
  54  0.083  0.750  0.083-  51 1.53  49 1.53  50 1.53  52 1.53
  55  0.083  0.917  0.250- 123 1.53  50 1.53  73 1.53   3 1.53
  56  0.250  0.917  0.083-  58 1.53   3 1.53   9 1.53  52 1.53
  57  0.333  0.667  0.000-  32 1.53 195 1.53  62 1.53 181 1.53
  58  0.333  0.834  0.166-  56 1.53  62 1.53  63 1.54  53 1.54
  59  0.501  0.667  0.166-  39 1.53  61 1.53  62 1.53  40 1.53
  60  0.500  0.834  1.000-  62 1.53  64 1.53 205 1.53 203 1.54
[...]
 201  0.500  0.666  0.834- 181 1.53 203 1.54 204 1.54 182 1.54
 202  0.502  0.836  0.668- 131 1.52 206 1.53 133 1.54 204 1.57 215 2.65
 203  0.584  0.750  0.917- 208 1.54  65 1.54  60 1.54 201 1.54
 204  0.415  0.751  0.752- 199 1.52 200 1.53 201 1.54 202 1.57 215 2.65
 205  0.417  0.918  0.917- 200 1.53   9 1.53  60 1.53 153 1.54
 206  0.584  0.919  0.752- 202 1.53 153 1.53 208 1.54 159 1.54
 207  0.670  0.668  0.668- 131 1.52 212 1.53 118 1.54 182 1.57 215 2.65
 208  0.667  0.834  0.834- 213 1.53 203 1.54 206 1.54 212 1.54
 209  0.834  0.667  0.834- 212 1.53 211 1.53 190 1.53 189 1.54
 210  0.834  0.834  0.667- 214 1.53 139 1.53 141 1.54 212 1.54
 211  0.917  0.750  0.917- 209 1.53  49 1.53  68 1.53 192 1.53
 212  0.752  0.750  0.752- 207 1.53 209 1.53 208 1.54 210 1.54
 213  0.750  0.917  0.917- 208 1.53  17 1.53  68 1.53 161 1.53
 214  0.917  0.917  0.750- 210 1.53 161 1.53 143 1.53 192 1.53
 215  0.459  0.625  0.541- 106 2.13 178 2.13 199 2.13 111 2.13 132 2.13 131 2.13 110 2.65 109 2.65
                           104 2.65 124 2.65 182 2.65 204 2.65 108 2.65 113 2.65 128 2.65 129 2.65

IMPORTANT INFORMATION: All symmetrisations will be switched off!
NOSYMM: (Re-)initialisation of all symmetry stuff for point group C_1.

                                     Primitive cell

  volume of cell :    1202.8529

  direct lattice vectors                    reciprocal lattice vectors
    10.635000229  0.000000000  0.000000000     0.094029147  0.000000000  0.000000000
     0.000000000 10.635000229  0.000000000     0.000000000  0.094029147  0.000000000
     0.000000000  0.000000000 10.635000229     0.000000000  0.000000000  0.094029147

  length of vectors
    10.635000229 10.635000229 10.635000229     0.094029147  0.094029147  0.094029147

  position of ions in fractional coordinates (direct lattice)
     0.000183213  0.000273733  0.999816883
     0.000183153  0.166849793  0.166392915
     0.166743295  0.000252788  0.166413838
     0.166706110  0.166813169  0.999853505
     0.249970188  0.083692368  0.249507951
     0.083447635  0.083539592  0.083127383
     0.083470031  0.250136532  0.249689627
     0.250001665  0.250020803  0.083134252
     0.333401940  0.000666510  0.000121605
     0.333402064  0.166544905  0.165999938
     0.500253555  0.001324492  0.165342142
     0.500178261  0.166537112  0.000129569
     0.583745861  0.083831293  0.249420570
     0.416873462  0.083854250  0.082812601
     0.416782480  0.249246213  0.248820383
     0.583650754  0.249722614  0.082820765
     0.667052091  0.000369313  0.999808831
     0.667052149  0.166857897  0.166297358
     0.833681742  0.000348364  0.166318328
     0.833607130  0.166849812  0.999816913
     0.916909640  0.083576564  0.249651786
     0.750348242  0.083576562  0.083090429
     0.750396286  0.249946927  0.249603730
     0.916872717  0.250114223  0.083127339
     0.000146552  0.333373030  0.999853491
     0.999878594  0.500068770  0.165999942
     0.166658537  0.333325429  0.166224980
     0.166476466  0.499973830  0.000105340
     0.249961538  0.416628101  0.249176223
     0.083354335  0.416668335  0.083134238
     0.082579668  0.583449478  0.248820376
     0.249907547  0.583506128  0.083018745
     0.333307118  0.333143330  0.000105356
     0.333491765  0.500158467  0.166180813
     0.500268399  0.332541167  0.165521903
     0.500220187  0.499978942  0.000008648
     0.583702615  0.415090428  0.248046778
     0.416839115  0.416574181  0.083018762
     0.417344080  0.584011434  0.248866601
     0.583739615  0.583497510  0.082930449
     0.667082390  0.333229266  0.999967629
     0.667388910  0.500035087  0.165757819
     0.833586327  0.333410217  0.166413711
     0.834000128  0.500068778  0.000121470
     0.917025865  0.416636820  0.249507760
     0.750492267  0.416636829  0.082974188
     0.752410210  0.583966012  0.247589809
     0.917187654  0.583540499  0.082812440
     0.999870637  0.666845131  0.000129475
     0.000191392  0.833719107  0.166297322
     0.165874343  0.666935270  0.165521930
     0.166562431  0.833749275  0.999967687
     0.248423791  0.750369469  0.248046878
     0.083056071  0.750317434  0.082820757
     0.083280335  0.917062935  0.249603898
     0.249970149  0.917158882  0.082974361
     0.333312353  0.666886850  0.000008728
     0.333368459  0.834055894  0.165758044
     0.500584822  0.667251716  0.166001668
     0.500212276  0.833812544  0.999922039
[...]
     0.499704935  0.666371333  0.834076832
     0.501664856  0.836186163  0.667580842
     0.583559479  0.750226094  0.916760780
     0.415381792  0.751295481  0.752467364
     0.416782391  0.917846328  0.917420419
     0.583702361  0.918620050  0.751576096
     0.669519859  0.668332550  0.667580735
     0.667091765  0.833758919  0.833770501
     0.834478181  0.666935258  0.834125652
     0.834242114  0.834055915  0.666631431
     0.917179365  0.750317433  0.916944014
     0.751953215  0.750369497  0.751576138
     0.750396161  0.917062979  0.916719746
     0.917025784  0.917158926  0.750029827
     0.458519470  0.625185655  0.541480061

  ion indices of the primitive-cell ions
[...]
[...]
    637      20.2509      0.00000
    638      20.2789      0.00000
    639      20.2904      0.00000
    640      20.2909      0.00000
    641      20.2967      0.00000
    642      20.2971      0.00000
    643      20.3859      0.00000
    644      20.3891      0.00000
    645      20.3903      0.00000
    646      20.4029      0.00000
    647      20.5240      0.00000
    648      20.7308      0.00000
    649      20.9426      0.00000
    650      20.9643      0.00000
    651      20.9737      0.00000

 soft charge-density along one line, spin component           1
         0         1         2         3         4         5         6         7         8         9
 total charge-density along one line

 soft charge-density along one line, spin component           2
         0         1         2         3         4         5         6         7         8         9
 total charge-density along one line

------------------------ aborting loop because EDIFF is reached ----------------------------------------

 only isotrope contributions calculated
  for stress because ISIF=1 (only pressure is correct)

  FORCE on cell =-STRESS in cart. coord.  units (eV):
  Direction    XX          YY          ZZ          XY          YZ          ZX
  Alpha Z  3317.58787  3317.58787  3317.58787
  Ewald  -12949.35539-12949.35662-12949.35548    21.21275   -21.21249   -21.22282
  Hartree   977.31682   977.31620   977.31299    -1.79065     1.79433     1.79258
  E(xc)   -3329.32655 -3329.32655 -3329.32653     0.30013    -0.30010    -0.30013
  Local   -1124.53683 -1124.53509 -1124.53037   -12.01903    12.00986    12.02050
  n-local  -764.50877  -764.50877  -764.50877     0.00000     0.00000     0.00000
  augment   -74.76367   -74.76367   -74.76367     0.00000     0.00000     0.00000
  Kinetic 14009.35703 14009.35719 14009.35448    -0.05503     0.06237     0.06314
  Fock        0.00000     0.00000     0.00000     0.00000     0.00000     0.00000
  Total      61.77051    61.77055    61.77050     7.64817    -7.64604    -7.64674
  in kB      82.27716    82.27721    82.27715    10.18722   -10.18438   -10.18531

 VOLUME and BASIS-vectors are now :
  energy-cutoff  :      370.00
  volume of cell :     1202.85
      direct lattice vectors                 reciprocal lattice vectors
    10.635000229  0.000000000  0.000000000     0.094029147  0.000000000  0.000000000
     0.000000000 10.635000229  0.000000000     0.000000000  0.094029147  0.000000000
     0.000000000  0.000000000 10.635000229     0.000000000  0.000000000  0.094029147

  length of vectors
    10.635000229 10.635000229 10.635000229     0.094029147  0.094029147  0.094029147

 FORCES acting on ions:
    Electron-Ion                     Ewald-Force                    Non-Local-Force
   0.297E+00 -.952E+00 -.296E+00   -.305E+00 0.953E+00 0.304E+00   0.606E-02 -.574E-03 -.607E-02
   0.297E+00 0.296E+00 0.952E+00   -.304E+00 -.304E+00 -.952E+00   0.607E-02 0.602E-02 0.477E-03
   0.153E+01 -.709E+00 0.709E+00   -.151E+01 0.701E+00 -.700E+00   -.136E-01 0.877E-02 -.888E-02
   0.138E+01 -.569E-01 0.568E-01   -.138E+01 0.672E-01 -.670E-01   0.537E-02 -.966E-02 0.959E-02
   0.181E+01 -.806E+00 0.108E+01   -.183E+01 0.842E+00 -.110E+01   0.145E-01 -.327E-01 0.145E-01
   0.959E+00 -.286E+00 0.286E+00   -.960E+00 0.294E+00 -.294E+00   0.817E-03 -.608E-02 0.618E-02
   0.721E+00 0.721E+00 0.153E+01   -.712E+00 -.712E+00 -.152E+01   -.885E-02 -.890E-02 -.136E-01
   0.186E+01 0.268E+00 0.399E+00   -.185E+01 -.268E+00 -.399E+00   -.123E-01 -.349E-03 -.144E-02
   0.223E+01 -.673E+00 -.427E+00   -.222E+01 0.717E+00 0.478E+00   -.126E-01 -.434E-01 -.547E-01
   0.223E+01 0.427E+00 0.672E+00   -.222E+01 -.478E+00 -.716E+00   -.126E-01 0.546E-01 0.433E-01
   -.368E+01 -.117E+01 0.117E+01   0.362E+01 0.118E+01 -.118E+01   0.776E-01 -.179E-01 0.178E-01
   -.146E+01 0.320E+00 -.320E+00   0.142E+01 -.350E+00 0.350E+00   0.445E-01 0.294E-01 -.294E-01
   -.139E+01 0.278E+00 -.284E+00   0.139E+01 -.347E+00 0.294E+00   -.337E-02 0.696E-01 -.939E-02
   0.145E+01 -.301E+00 0.302E+00   -.141E+01 0.332E+00 -.332E+00   -.445E-01 -.295E-01 0.296E-01
   -.130E+01 0.161E+01 0.119E+01   0.130E+01 -.165E+01 -.123E+01   0.580E-02 0.420E-01 0.295E-01
   -.224E+01 0.682E+00 0.406E+00   0.223E+01 -.726E+00 -.458E+00   0.127E-01 0.434E-01 0.548E-01
   -.187E+01 -.255E+00 -.412E+00   0.185E+01 0.256E+00 0.412E+00   0.122E-01 0.193E-03 0.164E-02
   -.187E+01 0.411E+00 0.255E+00   0.185E+01 -.411E+00 -.256E+00   0.122E-01 -.167E-02 -.316E-03
   -.561E+00 -.562E+00 0.562E+00   0.548E+00 0.548E+00 -.548E+00   0.138E-01 0.137E-01 -.138E-01
   -.951E+00 0.296E+00 -.296E+00   0.952E+00 -.304E+00 0.304E+00   -.476E-03 0.602E-02 -.605E-02
   0.733E-01 0.733E-01 0.137E+01   -.833E-01 -.834E-01 -.138E+01   0.960E-02 0.972E-02 0.538E-02
   -.137E+01 0.732E-01 -.729E-01   0.138E+01 -.834E-01 0.828E-01   -.539E-02 0.972E-02 -.959E-02
   -.127E+01 0.141E+01 0.127E+01   0.132E+01 -.147E+01 -.132E+01   -.512E-01 0.561E-01 0.512E-01
   -.286E+00 0.959E+00 0.286E+00   0.294E+00 -.959E+00 -.294E+00   -.620E-02 0.738E-03 0.617E-02
   -.562E-01 0.138E+01 0.568E-01   0.665E-01 -.138E+01 -.670E-01   -.959E-02 0.549E-02 0.959E-02
   0.428E+00 0.223E+01 0.673E+00   -.479E+00 -.222E+01 -.716E+00   0.547E-01 -.127E-01 0.433E-01
   0.128E+01 0.128E+01 0.140E+01   -.133E+01 -.133E+01 -.146E+01   0.511E-01 0.512E-01 0.560E-01
   -.273E+00 0.139E+01 0.253E+00   0.283E+00 -.139E+01 -.322E+00   -.959E-02 0.351E-02 0.698E-01
   0.146E+01 0.146E+01 0.328E+01   -.144E+01 -.144E+01 -.323E+01   -.216E-01 -.217E-01 -.522E-01
   0.268E+00 0.186E+01 0.399E+00   -.268E+00 -.185E+01 -.399E+00   -.287E-03 -.124E-01 -.141E-02
   0.161E+01 -.130E+01 0.119E+01   -.165E+01 0.130E+01 -.123E+01   0.420E-01 0.594E-02 0.295E-01
   -.828E-01 0.996E+00 0.590E+00   0.689E-01 -.985E+00 -.618E+00   0.117E-01 -.124E-01 0.309E-01
   0.139E+01 -.273E+00 0.253E+00   -.139E+01 0.283E+00 -.321E+00   0.359E-02 -.949E-02 0.697E-01
   0.938E+00 0.939E+00 0.307E+01   -.931E+00 -.932E+00 -.312E+01   0.422E-02 0.417E-02 0.459E-01
   0.128E+01 0.119E+01 0.160E+01   -.128E+01 -.123E+01 -.164E+01   -.579E-02 0.295E-01 0.421E-01
   0.199E+00 -.562E-01 -.118E+01   -.214E+00 0.971E-01 0.119E+01   0.137E-01 -.435E-01 0.328E-02
   -.315E+01 0.525E+01 0.592E+01   0.315E+01 -.546E+01 -.616E+01   0.242E-01 0.217E+00 0.232E+00
   0.995E+00 -.828E-01 0.590E+00   -.984E+00 0.691E-01 -.618E+00   -.125E-01 0.116E-01 0.308E-01
   0.735E+00 0.736E+00 0.802E+01   -.689E+00 -.690E+00 -.823E+01   -.542E-01 -.541E-01 0.182E+00
   0.417E-01 -.217E+00 0.115E+01   -.829E-01 0.232E+00 -.115E+01   0.437E-01 -.135E-01 -.294E-02
   -.182E+01 0.108E+01 -.826E+00   0.183E+01 -.110E+01 0.862E+00   -.145E-01 0.145E-01 -.326E-01
   -.731E+00 0.709E+00 0.187E+01   0.752E+00 -.602E+00 -.171E+01   -.224E-01 -.112E+00 -.165E+00
   -.708E+00 0.153E+01 0.709E+00   0.700E+00 -.151E+01 -.700E+00   0.888E-02 -.135E-01 -.888E-02
   -.672E+00 0.223E+01 -.427E+00   0.716E+00 -.222E+01 0.478E+00   -.434E-01 -.127E-01 -.547E-01
   -.805E+00 0.181E+01 0.108E+01   0.841E+00 -.183E+01 -.110E+01   -.328E-01 0.144E-01 0.145E-01
   -.108E+01 0.181E+01 0.806E+00   0.110E+01 -.183E+01 -.842E+00   -.145E-01 0.144E-01 0.328E-01
   -.373E+01 0.212E+01 0.373E+01   0.370E+01 -.179E+01 -.370E+01   0.318E-01 -.364E+00 -.318E-01
   -.301E+00 0.145E+01 0.302E+00   0.331E+00 -.141E+01 -.332E+00   -.296E-01 -.444E-01 0.296E-01
   0.321E+00 -.146E+01 -.320E+00   -.351E+00 0.142E+01 0.351E+00   0.294E-01 0.444E-01 -.294E-01
   0.412E+00 -.187E+01 0.255E+00   -.412E+00 0.185E+01 -.256E+00   -.163E-02 0.123E-01 -.311E-03
   0.119E+01 0.128E+01 0.160E+01   -.123E+01 -.128E+01 -.164E+01   0.294E-01 -.581E-02 0.421E-01
   0.108E+01 -.182E+01 -.826E+00   -.110E+01 0.183E+01 0.862E+00   0.143E-01 -.144E-01 -.326E-01
   0.525E+01 -.315E+01 0.592E+01   -.546E+01 0.315E+01 -.616E+01   0.217E+00 0.241E-01 0.232E+00
   0.683E+00 -.224E+01 0.406E+00   -.726E+00 0.223E+01 -.458E+00   0.435E-01 0.126E-01 0.548E-01
   0.141E+01 -.127E+01 0.127E+01   -.147E+01 0.132E+01 -.132E+01   0.562E-01 -.512E-01 0.512E-01
   0.181E+01 -.108E+01 0.806E+00   -.183E+01 0.110E+01 -.842E+00   0.145E-01 -.145E-01 0.328E-01
   -.571E-01 0.200E+00 -.118E+01   0.978E-01 -.215E+00 0.119E+01   -.435E-01 0.136E-01 0.329E-02
   0.708E+00 -.731E+00 0.187E+01   -.601E+00 0.752E+00 -.171E+01   -.112E+00 -.223E-01 -.165E+00
   -.129E+01 -.128E+01 0.357E+01   0.138E+01 0.138E+01 -.359E+01   -.102E+00 -.102E+00 0.291E-01
   -.101E+01 0.758E-01 -.616E+00   0.100E+01 -.620E-01 0.645E+00   0.124E-01 -.117E-01 -.307E-01
[...]
   0.575E+01 -.142E+02 -.926E+01   -.584E+01 0.149E+02 0.935E+01   0.313E-01 -.648E+00 -.108E+00
   -.952E+00 -.952E+00 -.308E+01   0.945E+00 0.945E+00 0.313E+01   -.398E-02 -.407E-02 -.458E-01
   -.578E+01 -.929E+01 -.142E+02   0.587E+01 0.938E+01 0.149E+02   -.313E-01 -.108E+00 -.648E+00
   -.130E+01 -.119E+01 -.161E+01   0.130E+01 0.123E+01 0.165E+01   0.580E-02 -.295E-01 -.420E-01
   -.315E+01 -.592E+01 -.525E+01   0.315E+01 0.616E+01 0.546E+01   0.242E-01 -.232E+00 -.217E+00
   -.142E+02 0.575E+01 -.926E+01   0.149E+02 -.584E+01 0.935E+01   -.648E+00 0.313E-01 -.107E+00
   -.147E+01 -.147E+01 -.328E+01   0.145E+01 0.145E+01 0.323E+01   0.215E-01 0.216E-01 0.523E-01
   -.160E+01 0.128E+01 -.119E+01   0.164E+01 -.128E+01 0.123E+01   -.420E-01 -.584E-02 -.293E-01
   -.188E+01 -.731E+00 -.709E+00   0.171E+01 0.752E+00 0.602E+00   0.165E+00 -.223E-01 0.112E+00
   -.406E+00 -.224E+01 -.683E+00   0.457E+00 0.223E+01 0.726E+00   -.548E-01 0.126E-01 -.434E-01
   -.592E+01 -.315E+01 -.525E+01   0.616E+01 0.315E+01 0.546E+01   -.232E+00 0.240E-01 -.217E+00
   -.127E+01 -.127E+01 -.141E+01   0.132E+01 0.132E+01 0.147E+01   -.512E-01 -.512E-01 -.561E-01
   -.806E+00 -.108E+01 -.181E+01   0.841E+00 0.110E+01 0.183E+01   -.327E-01 -.145E-01 -.145E-01
   -.765E-01 -.788E-01 0.728E-01   0.778E-01 0.757E-01 -.745E-01   0.269E-03 0.196E-02 -.590E-04
   -.139E-03 -.198E-02 0.157E-03   0.524E-12 -.635E-12 0.318E-11   0.563E-03 0.185E-02 -.483E-03

 POSITION                                       TOTAL-FORCE (eV/Angst)
      0.00195      0.00291     10.63305        -0.001643      0.000118      0.001551
      0.00195      1.77445      1.76959        -0.001531     -0.001564      0.000021
      1.77331      0.00269      1.76981        -0.001245      0.000446     -0.000338
      1.77292      1.77406     10.63344         0.002826      0.000636     -0.000608
      2.65843      0.89007      2.65352        -0.000751      0.002858     -0.004611
      0.88747      0.88844      0.88406         0.000180      0.001765     -0.001663
      0.88770      2.66020      2.65545        -0.000134     -0.000107     -0.000930
      2.65877      2.65897      0.88413        -0.001122     -0.000568     -0.001648
      3.54573      0.00709      0.00129         0.002367      0.000220     -0.003744
      3.54573      1.77121      1.76541         0.002308      0.003888      0.000072
      5.32020      0.01409      1.75841         0.004421     -0.004694      0.004831
      5.31940      1.77112      0.00138         0.001053     -0.000750      0.000631
      6.20814      0.89155      2.65259        -0.004912      0.000895      0.000333
      4.43345      0.89179      0.88071        -0.001095      0.000713     -0.000635
      4.43248      2.65073      2.64620         0.005921     -0.000470     -0.006831
      6.20713      2.65580      0.88080        -0.002643     -0.000122      0.003686
      7.09410      0.00393     10.63297         0.001082      0.000693      0.001622
      7.09410      1.77453      1.76857         0.001039     -0.001897     -0.000637
      8.86621      0.00370      1.76880        -0.000183     -0.000227      0.000331
      8.86541      1.77445     10.63305         0.000164     -0.001701      0.001536
      9.75133      0.88884      2.65505        -0.000389     -0.000437      0.002947
      7.97995      0.88884      0.88367        -0.002721     -0.000487      0.000414
      7.98046      2.65819      2.65454        -0.002117     -0.001178      0.002326
      9.75094      2.65996      0.88406         0.001832      0.000144     -0.001665
      0.00156      3.54542     10.63344         0.000710      0.002824     -0.000614
     10.63371      5.31823      1.76541         0.003937      0.002351      0.000105
      1.77241      3.54492      1.76780         0.002362      0.002375     -0.000786
      1.77048      5.31722      0.00112        -0.000024      0.004903      0.001058
      2.65834      4.43084      2.64999        -0.000610     -0.000615     -0.001084
      0.88647      4.43127      0.88413        -0.000549     -0.001083     -0.001615
      0.87823      6.20499      2.64620        -0.000538      0.005943     -0.006967
      2.65777      6.20559      0.88290        -0.002421     -0.001739      0.002086
      3.54472      3.54298      0.00112         0.004811     -0.000036      0.001052
      3.54668      5.31919      1.76733         0.010842      0.010906     -0.003935
      5.32035      3.53658      1.76033        -0.006450     -0.007226     -0.000353
      5.31984      5.31728      0.00009        -0.001923     -0.002606      0.004384
      6.20768      4.41449      2.63798         0.013734      0.002238     -0.012821
      4.43308      4.43027      0.88290        -0.001849     -0.002359      0.002100
      4.43845      6.21096      2.64670        -0.008130     -0.008138     -0.023992
      6.20807      6.20550      0.88197         0.002507      0.001675     -0.004228
      7.09442      3.54389     10.63466         0.000743     -0.004838      0.002481
      7.09768      5.31787      1.76283        -0.000427     -0.005724     -0.004298
      8.86519      3.54582      1.76981         0.000550     -0.001227     -0.000279
      8.86959      5.31823      0.00129         0.000316      0.002383     -0.003711
      9.75257      4.43093      2.65352         0.002881     -0.000736     -0.004506
      7.98149      4.43093      0.88243         0.004824     -0.000820     -0.002514
      8.00188      6.21048      2.63312         0.007918     -0.032139     -0.007508
      9.75429      6.20595      0.88071         0.000809     -0.001054     -0.000568
     10.63362      7.09190      0.00138        -0.000636      0.001071      0.000680
      0.00204      8.86660      1.76857        -0.001832      0.001033     -0.000628
      1.76407      7.09286      1.76033        -0.007217     -0.006377     -0.000487
      1.77139      8.86692     10.63466        -0.004743      0.000705      0.002494
      2.64199      7.98018      2.63798         0.002188      0.013764     -0.013105
      0.88330      7.97963      0.88080        -0.000035     -0.002626      0.003695
      0.88569      9.75296      2.65454        -0.001180     -0.002169      0.002194
      2.65843      9.75398      0.88243        -0.000815      0.004744     -0.002568
      3.54478      7.09234      0.00009        -0.002726     -0.001804      0.004376
      3.54537      8.87018      1.76284        -0.005828     -0.000422     -0.004486
      5.32372      7.09622      1.76543        -0.004013     -0.003986      0.003366
      5.31976      8.86760     10.63417         0.001528      0.002401     -0.001994
[...]
      5.31436      7.08686      8.87041         0.007728      0.007755      0.024220
      5.33521      8.89284      7.09972        -0.049515      0.011582     -0.023156
      6.20616      7.97865      9.74975        -0.010873     -0.010808      0.004236
      4.41759      7.99003      8.00249         0.052348     -0.022101      0.011535
      4.43248      9.76130      9.75677         0.006320      0.007391      0.000653
      6.20767      9.76952      7.99301         0.014462      0.012655     -0.003222
      7.12034      7.10772      7.09972         0.011540     -0.049769     -0.023611
      7.09452      8.86703      8.86715         0.000717      0.000721      0.001123
      8.87468      7.09286      8.87093         0.000598     -0.005863      0.006792
      8.87217      8.87018      7.08963         0.003503     -0.000471      0.005292
      9.75420      7.97963      9.75170        -0.003702     -0.002502     -0.000186
      7.99702      7.98018      7.99301         0.012627      0.014315     -0.003386
      7.98046      9.75296      9.74931        -0.002187     -0.002186      0.000677
      9.75257      9.75399      7.97657         0.002145      0.004679      0.000478
      4.87635      6.64885      5.75864         0.001598     -0.001127     -0.001764
    total drift:                                0.000424     -0.000133     -0.000326

  FREE ENERGIE OF THE ION-ELECTRON SYSTEM (eV)
  free  energy   TOTEN  =     -1936.72989113 eV

  energy  without entropy=    -1936.72989113  energy(sigma->0) =    -1936.72989113

 writing wavefunctions