 vasp.6.2.1 16May21 (build Sep 27 2021 21:11:04) gamma-only

 executed on             LinuxIFC date 2023.05.06  23:56:08

 INCAR:
   GGA = PE
   ISTART = 1
   ISPIN = 2
   ENCUT = 370
   ENAUG = 740
   EDIFF = 1E-5
   IBRION = 2
   POTIM = 0.2
   ALGO = All
   NSW = 0
   EDIFFG = -1E-2
   ISMEAR = 0
   SIGMA = 0.01
   ISIF = 1
   LREAL = .FALSE.
   ISYM = 0
   PREC = Accurate
   NCORE = 8
   NELM = 60
   NWRITE = 2
   SYMPREC = 1.0e-8

 POTCAR:    PAW_PBE C 08Apr2002
 POTCAR:    PAW_PBE Pr 23Dec2003
|           W    W    AA    RRRRR   N    N  II  N    N   GGGG   !!!           |
|           W    W   A  A   R    R  NN   N  II  NN   N  G    G  !!!           |
|           W    W  A    A  R    R  N N  N  II  N N  N  G       !!!           |
|           W WW W  AAAAAA  RRRRR   N  N N  II  N  N N  G  GGG   !            |
|           WW  WW  A    A  R   R   N   NN  II  N   NN  G    G                |
|           W    W  A    A  R    R  N    N  II  N    N   GGGG   !!!           |
|     You use a magnetic or noncollinear calculation, but did not specify     |
|     the initial magnetic moment with the MAGMOM tag. Note that a            |
|     default of 1 will be used for all atoms. This ferromagnetic setup       |
|     may break the symmetry of the crystal, in particular it may rule        |
|     out finding an antiferromagnetic solution. Thence, we recommend         |
|     setting the initial magnetic moment manually or verifying carefully     |
|     that this magnetic setup is desired.                                    |

   TITEL  = PAW_PBE C 08Apr2002
   POMASS =   12.011; ZVAL   =    4.000    mass and valenz
   ENMAX  =  400.000; ENMIN  =  300.000 eV

   TITEL  = PAW_PBE Pr 23Dec2003
   POMASS =  141.000; ZVAL   =   13.000    mass and valenz
   ENMAX  =  272.941; ENMIN  =  204.706 eV

  PAW_PBE C 08Apr2002                   :
  PAW_PBE Pr 23Dec2003                  :

 POSCAR: 3D\Atomistic
  positions in direct lattice
  velocities in cartesian coordinates
 exchange correlation table for  LEXCH =        8
   RHO(1)=    0.500       N(1)  =     2000
   RHO(2)=  100.500       N(2)  =     4000

 ion  position               nearest neighbor table
   1  0.000  0.000  1.000-  72 1.53 194 1.53   6 1.54 160 1.54
   2  1.000  0.167  0.167-   7 1.53  21 1.53   6 1.54  24 1.54
   3  0.167  1.000  0.167-  55 1.53  56 1.53   5 1.53   6 1.54
   4  0.167  0.167  1.000-   8 1.53 144 1.53   6 1.54 146 1.54
   5  0.250  0.083  0.250-   3 1.53  10 1.54  76 1.54  81 1.54
   6  0.083  0.083  0.083-   4 1.54   2 1.54   1 1.54   3 1.54
   7  0.083  0.250  0.250-  27 1.53   2 1.53  97 1.54  76 1.54
   8  0.250  0.250  0.083-  27 1.53   4 1.53  33 1.54  10 1.54
   9  0.333  0.000  0.000-  14 1.53  56 1.54 202 1.54 144 1.54
  10  0.333  0.166  0.167-  14 1.53   5 1.54   8 1.54  15 1.54
  11  0.500  0.000  0.166-  14 1.53  13 1.53  64 1.53  63 1.55
  12  0.500  0.167  1.000- 152 1.53 154 1.53  14 1.53  16 1.53
  13  0.583  0.083  0.250-  89 1.53  11 1.53  84 1.54  18 1.54
  14  0.417  0.083  0.083-  11 1.53   9 1.53  10 1.53  12 1.53
  15  0.417  0.250  0.250- 105 1.53  35 1.53  84 1.54  10 1.54
  16  0.583  0.250  0.083-  35 1.53  41 1.53  18 1.53  12 1.53
  17  0.667  0.000  1.000- 152 1.53 210 1.54  22 1.54  64 1.54
  18  0.667  0.167  0.167-  16 1.53  23 1.54  22 1.54  13 1.54
  19  0.834  0.000  0.166-  72 1.53  21 1.53  22 1.53  71 1.54
  20  0.833  0.167  1.000-  22 1.53 162 1.54 160 1.54  24 1.54
  21  0.917  0.083  0.250-  19 1.53   2 1.53  73 1.54  92 1.54
  22  0.750  0.083  0.083-  19 1.53  20 1.53  17 1.54  18 1.54
  23  0.750  0.250  0.250-  43 1.53  18 1.54  92 1.54 111 1.54
  24  0.917  0.250  0.083-  20 1.54   2 1.54  25 1.54  43 1.54
  25  0.000  0.333  1.000-  30 1.53 184 1.53 146 1.54  24 1.54
  26  1.000  0.500  0.167-  48 1.53  31 1.53  45 1.54  30 1.54
  27  0.166  0.333  0.166-  30 1.53   7 1.53   8 1.53  29 1.54
  28  0.167  0.500  1.000- 170 1.53  32 1.54 168 1.54  30 1.54
  29  0.250  0.417  0.250- 105 1.53  34 1.53 100 1.53  27 1.54
  30  0.083  0.417  0.083-  27 1.53  25 1.53  26 1.54  28 1.54
  31  0.083  0.583  0.250- 100 1.53  51 1.53 119 1.53  26 1.53
  32  0.250  0.583  0.083-  34 1.53  51 1.53  57 1.53  28 1.54
  33  0.333  0.333  1.000- 154 1.53 168 1.54   8 1.54  38 1.54
  34  0.332  0.499  0.165-  32 1.53  38 1.53  29 1.53  39 1.57
  35  0.500  0.333  0.166-  16 1.53  15 1.53  38 1.53  37 1.55
  36  0.500  0.500  0.000- 176 1.54  38 1.54 178 1.54  40 1.54
  37  0.583  0.418  0.251- 108 1.50  42 1.53 111 1.54  35 1.55
  38  0.417  0.416  0.083-  34 1.53  35 1.53  36 1.54  33 1.54
  39  0.417  0.584  0.251- 108 1.50 127 1.50  59 1.54  34 1.57
  40  0.583  0.583  0.084-  59 1.53  42 1.53  36 1.54  65 1.54
  41  0.667  0.333  0.000-  16 1.53  46 1.54 162 1.54 176 1.54
  42  0.666  0.500  0.167-  40 1.53  47 1.53  37 1.53  46 1.54
  43  0.833  0.334  0.167-  45 1.53  46 1.53  23 1.53  24 1.54
  44  0.833  0.500  0.000-  48 1.53 186 1.54  46 1.54 184 1.54
  45  0.916  0.417  0.250-  43 1.53  97 1.54  26 1.54 114 1.54
  46  0.750  0.417  0.084-  43 1.53  41 1.54  44 1.54  42 1.54
  47  0.749  0.584  0.251- 132 1.49 114 1.53  42 1.53  67 1.55
  48  0.917  0.583  0.083-  67 1.53  26 1.53  44 1.53  49 1.53
  49  0.000  0.667  0.000- 208 1.53  54 1.53  48 1.53 170 1.53
  50  0.000  0.833  0.167-  54 1.53  69 1.53  55 1.54  72 1.54
  51  0.166  0.666  0.166-  54 1.53  32 1.53  31 1.53  53 1.55
  52  0.167  0.833  0.000-  54 1.53 192 1.54  56 1.54 194 1.54
  53  0.251  0.750  0.251- 127 1.49 122 1.53  58 1.53  51 1.55
  54  0.083  0.750  0.083-  51 1.53  50 1.53  52 1.53  49 1.53
  55  0.084  0.916  0.250-   3 1.53  73 1.54  50 1.54 122 1.54
  56  0.250  0.916  0.084-   3 1.53   9 1.54  52 1.54  58 1.54
  57  0.333  0.667  0.000- 192 1.53  32 1.53 178 1.54  62 1.54
  58  0.334  0.833  0.167-  62 1.53  53 1.53  63 1.53  56 1.54
  59  0.500  0.667  0.167-  40 1.53  62 1.53  61 1.54  39 1.54
  60  0.500  0.833  0.000-  64 1.54 202 1.54 200 1.54  62 1.54
[...]
 198  0.500  0.667  0.833- 200 1.53 178 1.53 179 1.54 201 1.54
 199  0.495  0.837  0.671- 201 1.50 130 1.50 203 1.50 212 2.57
 200  0.583  0.750  0.916- 198 1.53 205 1.53  60 1.54  65 1.54
 201  0.417  0.749  0.749- 199 1.50 196 1.50 198 1.54 197 1.57
 202  0.417  0.917  0.917- 197 1.53 150 1.53  60 1.54   9 1.54
 203  0.583  0.915  0.749- 199 1.50 205 1.53 156 1.54 150 1.55
 204  0.672  0.662  0.672- 209 1.49 117 1.50 179 1.50 212 2.59
 205  0.666  0.833  0.833- 200 1.53 209 1.53 203 1.53 210 1.54
 206  0.834  0.666  0.834- 208 1.53 186 1.53 187 1.53 209 1.55
 207  0.833  0.833  0.666- 136 1.53 209 1.53 138 1.53 211 1.54
 208  0.917  0.750  0.917- 206 1.53 189 1.53  68 1.53  49 1.53
 209  0.749  0.750  0.749- 204 1.49 207 1.53 205 1.53 206 1.55
 210  0.750  0.916  0.916- 158 1.53  17 1.54  68 1.54 205 1.54
 211  0.916  0.916  0.750- 158 1.53 140 1.54 189 1.54 207 1.54
 212  0.500  0.667  0.500- 129 2.56 108 2.56 199 2.57 175 2.57 128 2.57 106 2.57 133 2.57 112 2.57
                           127 2.58 196 2.58 132 2.59 204 2.59

IMPORTANT INFORMATION: All symmetrisations will be switched off!
NOSYMM: (Re-)initialisation of all symmetry stuff for point group C_1.

                                     Primitive cell

  volume of cell :    1202.8529

  direct lattice vectors                    reciprocal lattice vectors
    10.635000229  0.000000000  0.000000000     0.094029147  0.000000000  0.000000000
     0.000000000 10.635000229  0.000000000     0.000000000  0.094029147  0.000000000
     0.000000000  0.000000000 10.635000229     0.000000000  0.000000000  0.094029147

  length of vectors
    10.635000229 10.635000229 10.635000229     0.094029147  0.094029147  0.094029147

  position of ions in fractional coordinates (direct lattice)
     0.000000051  0.000033195  0.999999698
     0.999999913  0.166665100  0.166635710
     0.166958272  0.999770870  0.166946324
     0.166636809  0.166665143  0.999999502
     0.250364609  0.082836209  0.250356190
     0.083441269  0.083242710  0.083437612
     0.083298515  0.249925692  0.250056330
     0.250055904  0.249935197  0.083300963
     0.333238637  0.000091904  0.000377866
     0.333254052  0.166396541  0.166744498
     0.500125989  0.000281139  0.166365696
     0.499999945  0.166663455  0.999998839
     0.583197499  0.083264225  0.250055384
     0.416716966  0.083394479  0.083386366
     0.416798852  0.250053806  0.250048381
     0.583281581  0.249933730  0.083386440
     0.666762458  0.000090505  0.999625238
     0.666746584  0.166928154  0.166747065
     0.833708768  0.000333760  0.166300383
     0.833363029  0.166665308  0.999999639
     0.916702031  0.083403299  0.250057121
     0.749943519  0.083393746  0.083301779
     0.749634980  0.250493064  0.250357756
     0.916558703  0.250088443  0.083437193
     0.000000096  0.333299786  0.999999641
     0.999578594  0.499894818  0.166529276
     0.166290575  0.332997026  0.166298879
     0.166570416  0.499899640  0.999604472
     0.249742205  0.416767750  0.249811661
     0.083257862  0.416722336  0.083250805
     0.082931483  0.583381630  0.249683011
     0.249734977  0.583412271  0.082995187
     0.333238054  0.333239013  0.999624399
     0.332075171  0.499069955  0.165117450
     0.499871894  0.333048457  0.166364578
     0.499999680  0.500060190  0.000002147
     0.582663061  0.418132906  0.251202335
     0.416664706  0.416490318  0.083110011
     0.416692895  0.583980936  0.251092304
     0.583210176  0.583398797  0.083606476
     0.666762657  0.333240478  0.000375211
     0.666212187  0.500467767  0.167238746
     0.833044012  0.333559689  0.166945114
     0.833431365  0.499899880  0.000397589
     0.916235716  0.416844796  0.250219750
     0.749745377  0.416871825  0.083778113
     0.749100663  0.583644754  0.250963775
     0.916729427  0.583299722  0.083244529
     0.000000953  0.666668201  0.000000656
     0.000427492  0.833439537  0.166529009
     0.166135134  0.666499641  0.166138917
     0.166570040  0.833434987  0.000399678
     0.250904992  0.749688340  0.250964731
     0.083272989  0.750036088  0.083244567
     0.083769459  0.916487400  0.250221277
     0.250255382  0.916461821  0.083779122
     0.333419272  0.666668282  0.000003597
     0.333786207  0.832868107  0.167238951
     0.499997207  0.666664845  0.166646293
     0.499999952  0.833276002  0.000004541
[...]
     0.499996955  0.666673897  0.833367527
     0.495110414  0.836502609  0.671256219
     0.583210635  0.749939983  0.916400896
     0.416690314  0.749354374  0.748927700
     0.416664658  0.916841014  0.916895204
     0.582662910  0.915190213  0.748796245
     0.671997020  0.661519523  0.671684787
     0.666212869  0.832868352  0.832767624
     0.833870244  0.666497238  0.833865711
     0.832851046  0.832899143  0.666241044
     0.916729334  0.750036508  0.916756850
     0.749099895  0.749694624  0.749039886
     0.749744657  0.916461960  0.916223449
     0.916234530  0.916487749  0.749779484
     0.499797849  0.666688511  0.499853292

  ion indices of the primitive-cell ions
   primitive index   ion index
                 1           1
                 2           2
                 3           3
                 4           4
                 5           5
[...]
[...]
    628      19.9998      0.00000
    629      20.0259      0.00000
    630      20.0579      0.00000
    631      20.0897      0.00000
    632      20.1039      0.00000
    633      20.1197      0.00000
    634      20.1529      0.00000
    635      20.1634      0.00000
    636      20.3376      0.00000
    637      20.3752      0.00000
    638      20.4029      0.00000
    639      20.4513      0.00000
    640      20.5431      0.00000
    641      20.5994      0.00000
    642      20.7828      0.00000

 soft charge-density along one line, spin component           1
         0         1         2         3         4         5         6         7         8         9
 total charge-density along one line

 soft charge-density along one line, spin component           2
         0         1         2         3         4         5         6         7         8         9
 total charge-density along one line

------------------------ aborting loop because EDIFF is reached ----------------------------------------

 only isotrope contributions calculated
  for stress because ISIF=1 (only pressure is correct)

  FORCE on cell =-STRESS in cart. coord.  units (eV):
  Direction    XX          YY          ZZ          XY          YZ          ZX
  Alpha Z  3227.87990  3227.87990  3227.87990
  Ewald  -12682.14875-12659.86533-12678.09346     0.47793     0.65053    -0.03710
  Hartree   992.63908  1004.64215   994.87260     0.14999     0.21582    -0.01917
  E(xc)   -3274.02571 -3273.93517 -3274.01186     0.00076     0.00112    -0.00000
  Local   -1187.70355 -1218.47864 -1193.36279    -0.62167    -0.87461     0.05530
  n-local  -734.71490  -734.71490  -734.71490     0.00000     0.00000     0.00000
  augment   -75.38774   -75.38774   -75.38774     0.00000     0.00000     0.00000
  Kinetic 13767.13388 13749.16940 13763.99065     0.05546     0.09992     0.00395
  Fock        0.00000     0.00000     0.00000     0.00000     0.00000     0.00000
  Total      33.67222    19.30967    31.17241     0.06247     0.09279     0.00299
  in kB      44.85077    25.72012    41.52106     0.08322     0.12360     0.00398

 VOLUME and BASIS-vectors are now :
  energy-cutoff  :      370.00
  volume of cell :     1202.85
      direct lattice vectors                 reciprocal lattice vectors
    10.635000229  0.000000000  0.000000000     0.094029147  0.000000000  0.000000000
     0.000000000 10.635000229  0.000000000     0.000000000  0.094029147  0.000000000
     0.000000000  0.000000000 10.635000229     0.000000000  0.000000000  0.094029147

  length of vectors
    10.635000229 10.635000229 10.635000229     0.094029147  0.094029147  0.094029147

 FORCES acting on ions:
    Electron-Ion                     Ewald-Force                    Non-Local-Force
   0.166E-01 0.923E+00 0.121E-01   -.162E-01 -.896E+00 -.119E-01   -.385E-03 -.224E-01 -.100E-03
   0.207E-01 -.900E-02 -.186E+01   -.203E-01 0.923E-02 0.185E+01   -.473E-03 -.247E-03 0.165E-01
   -.457E+01 0.321E+01 -.432E+01   0.464E+01 -.326E+01 0.439E+01   -.703E-01 0.585E-01 -.687E-01
   -.207E+01 -.829E-02 0.157E-01   0.206E+01 0.840E-02 -.154E-01   0.154E-01 -.207E-03 -.214E-03
   -.602E+01 0.520E+01 -.579E+01   0.619E+01 -.542E+01 0.597E+01   -.180E+00 0.213E+00 -.177E+00
   -.198E+01 0.141E+01 -.188E+01   0.205E+01 -.148E+01 0.195E+01   -.760E-01 0.717E-01 -.753E-01
   -.182E+01 -.951E+00 -.316E+01   0.182E+01 0.951E+00 0.329E+01   0.663E-02 0.960E-03 -.136E+00
   -.340E+01 -.992E+00 -.170E+01   0.354E+01 0.991E+00 0.170E+01   -.138E+00 0.226E-02 0.688E-02
   -.260E+01 0.324E+01 -.125E+01   0.261E+01 -.327E+01 0.135E+01   -.743E-02 0.383E-01 -.990E-01
   -.286E+01 0.101E+01 -.478E+01   0.284E+01 -.111E+01 0.482E+01   0.107E-01 0.109E+00 -.373E-01
   0.323E+01 0.691E+01 -.819E+01   -.362E+01 -.721E+01 0.850E+01   0.396E+00 0.294E+00 -.309E+00
   -.220E-01 -.136E-01 0.178E-01   0.223E-01 0.139E-01 -.172E-01   -.107E-03 0.431E-04 -.622E-03
   0.381E+01 0.295E+01 -.716E+01   -.394E+01 -.305E+01 0.717E+01   0.137E+00 0.941E-01 -.908E-02
   -.102E+01 0.268E+01 -.356E+01   0.111E+01 -.274E+01 0.361E+01   -.953E-01 0.590E-01 -.488E-01
   -.388E+01 -.296E+01 -.715E+01   0.402E+01 0.305E+01 0.716E+01   -.134E+00 -.962E-01 -.100E-01
   0.968E+00 -.271E+01 -.357E+01   -.106E+01 0.276E+01 0.361E+01   0.975E-01 -.598E-01 -.492E-01
   0.260E+01 0.325E+01 0.128E+01   -.261E+01 -.328E+01 -.137E+01   0.758E-02 0.377E-01 0.990E-01
   0.285E+01 -.103E+01 -.481E+01   -.284E+01 0.114E+01 0.484E+01   -.109E-01 -.110E+00 -.364E-01
   0.325E+01 0.188E+01 -.299E+01   -.317E+01 -.178E+01 0.291E+01   -.858E-01 -.973E-01 0.872E-01
   0.209E+01 -.121E-01 0.123E-01   -.208E+01 0.124E-01 -.120E-01   -.161E-01 0.362E-04 -.357E-03
   0.186E+01 0.936E+00 -.316E+01   -.186E+01 -.936E+00 0.329E+01   -.835E-02 -.512E-03 -.136E+00
   0.341E+01 0.977E+00 -.171E+01   -.354E+01 -.976E+00 0.171E+01   0.137E+00 -.228E-02 0.735E-02
   0.603E+01 -.523E+01 -.581E+01   -.621E+01 0.545E+01 0.599E+01   0.180E+00 -.213E+00 -.177E+00
   0.201E+01 -.143E+01 -.188E+01   -.208E+01 0.149E+01 0.195E+01   0.750E-01 -.716E-01 -.752E-01
   0.193E-01 -.931E+00 0.138E-01   -.189E-01 0.904E+00 -.135E-01   -.629E-03 0.223E-01 -.387E-03
   0.137E+01 -.126E+01 -.410E+01   -.148E+01 0.124E+01 0.414E+01   0.106E+00 0.164E-01 -.386E-01
   -.322E+01 -.188E+01 -.297E+01   0.314E+01 0.178E+01 0.289E+01   0.849E-01 0.966E-01 0.866E-01
   -.443E+01 -.131E+01 0.131E+01   0.447E+01 0.128E+01 -.141E+01   -.384E-01 0.201E-01 0.108E+00
   -.697E+01 -.497E+01 -.660E+01   0.720E+01 0.528E+01 0.685E+01   -.234E+00 -.309E+00 -.249E+00
   -.164E+01 -.206E+01 -.149E+01   0.165E+01 0.218E+01 0.149E+01   0.538E-03 -.128E+00 -.525E-03
   -.334E+01 -.376E+01 -.576E+01   0.342E+01 0.386E+01 0.581E+01   -.917E-01 -.993E-01 -.449E-01
   -.622E+01 -.370E+01 -.317E+01   0.627E+01 0.380E+01 0.326E+01   -.470E-01 -.102E+00 -.917E-01
   -.261E+01 -.325E+01 0.129E+01   0.262E+01 0.329E+01 -.138E+01   -.741E-02 -.382E-01 0.982E-01
   -.962E+01 -.765E+01 -.876E+01   0.979E+01 0.782E+01 0.888E+01   -.167E+00 -.175E+00 -.119E+00
   -.329E+01 -.693E+01 -.819E+01   0.369E+01 0.722E+01 0.850E+01   -.395E+00 -.296E+00 -.310E+00
   -.275E-01 -.473E+01 0.234E-01   0.267E-01 0.486E+01 -.224E-01   0.861E-03 -.127E+00 -.651E-03
   -.329E+01 -.181E+02 -.201E+02   0.325E+01 0.186E+02 0.206E+02   0.405E-01 -.519E+00 -.571E+00
   -.417E+01 -.509E+01 -.370E+01   0.429E+01 0.509E+01 0.379E+01   -.123E+00 0.174E-02 -.989E-01
   -.168E+02 -.166E+02 -.192E+02   0.171E+02 0.167E+02 0.195E+02   -.270E+00 -.870E-01 -.287E+00
   0.291E+01 -.235E+01 -.942E+01   -.291E+01 0.233E+01 0.960E+01   -.219E-02 0.186E-01 -.181E+00
   0.260E+01 -.326E+01 -.125E+01   -.260E+01 0.329E+01 0.134E+01   0.761E-02 -.375E-01 -.995E-01
   0.732E+01 -.611E+01 -.175E+02   -.742E+01 0.612E+01 0.180E+02   0.956E-01 -.129E-01 -.459E+00
   0.461E+01 -.323E+01 -.434E+01   -.467E+01 0.328E+01 0.441E+01   0.697E-01 -.581E-01 -.685E-01
   0.446E+01 -.131E+01 -.128E+01   -.450E+01 0.129E+01 0.138E+01   0.374E-01 0.210E-01 -.109E+00
   0.580E+01 -.427E+01 -.529E+01   -.599E+01 0.441E+01 0.545E+01   0.186E+00 -.145E+00 -.160E+00
   0.560E+01 -.436E+01 -.567E+01   -.577E+01 0.451E+01 0.586E+01   0.166E+00 -.148E+00 -.192E+00
   0.195E+02 0.486E+01 -.191E+02   -.200E+02 -.503E+01 0.195E+02   0.477E+00 0.164E+00 -.466E+00
   0.332E+01 -.447E+00 -.309E+01   -.335E+01 0.498E+00 0.313E+01   0.366E-01 -.526E-01 -.399E-01
   0.223E-01 0.872E-02 0.133E-01   -.209E-01 -.876E-02 -.123E-01   -.152E-02 -.144E-04 -.945E-03
   -.133E+01 0.125E+01 -.409E+01   0.143E+01 -.123E+01 0.412E+01   -.107E+00 -.163E-01 -.387E-01
   -.804E+01 -.327E+01 -.776E+01   0.826E+01 0.355E+01 0.798E+01   -.214E+00 -.279E+00 -.211E+00
   -.443E+01 0.131E+01 -.128E+01   0.446E+01 -.129E+01 0.138E+01   -.383E-01 -.200E-01 -.109E+00
   -.195E+02 -.485E+01 -.190E+02   0.199E+02 0.501E+01 0.195E+02   -.479E+00 -.158E+00 -.470E+00
   -.327E+01 0.468E+00 -.308E+01   0.331E+01 -.520E+00 0.312E+01   -.382E-01 0.534E-01 -.405E-01
   -.575E+01 0.426E+01 -.528E+01   0.594E+01 -.441E+01 0.544E+01   -.187E+00 0.146E+00 -.161E+00
   -.559E+01 0.436E+01 -.565E+01   0.576E+01 -.450E+01 0.585E+01   -.166E+00 0.148E+00 -.192E+00
   -.603E+01 0.146E-01 0.178E-01   0.619E+01 -.149E-01 -.173E-01   -.158E+00 -.143E-03 -.662E-04
   -.734E+01 0.610E+01 -.175E+02   0.743E+01 -.612E+01 0.179E+02   -.916E-01 0.155E-01 -.460E+00
   -.598E-01 0.856E-02 -.232E+02   0.581E-01 -.116E-01 0.237E+02   0.231E-02 0.192E-02 -.524E+00
   -.288E-01 0.474E+01 0.143E-01   0.278E-01 -.487E+01 -.144E-01   0.128E-02 0.127E+00 0.376E-03
[...]
   -.442E+02 0.396E+02 0.410E+02   0.484E+02 -.432E+02 -.446E+02   -.429E+01 0.359E+01 0.363E+01
   0.291E+01 0.237E+01 0.946E+01   -.291E+01 -.235E+01 -.965E+01   -.181E-02 -.183E-01 0.181E+00
   -.168E+02 0.166E+02 0.193E+02   0.171E+02 -.167E+02 -.196E+02   -.273E+00 0.856E-01 0.289E+00
   -.417E+01 0.508E+01 0.374E+01   0.429E+01 -.508E+01 -.383E+01   -.123E+00 -.195E-02 0.981E-01
   -.326E+01 0.181E+02 0.201E+02   0.322E+01 -.186E+02 -.207E+02   0.404E-01 0.518E+00 0.571E+00
   0.429E+02 -.435E+02 0.426E+02   -.459E+02 0.471E+02 -.457E+02   0.303E+01 -.360E+01 0.302E+01
   0.734E+01 0.614E+01 0.176E+02   -.743E+01 -.615E+01 -.180E+02   0.959E-01 0.119E-01 0.458E+00
   0.810E+01 -.327E+01 0.782E+01   -.831E+01 0.354E+01 -.803E+01   0.208E+00 -.274E+00 0.206E+00
   0.178E+02 0.611E+01 0.710E+01   -.182E+02 -.613E+01 -.719E+01   0.451E+00 0.166E-01 0.887E-01
   0.331E+01 0.461E+00 0.311E+01   -.335E+01 -.512E+00 -.315E+01   0.360E-01 0.525E-01 0.388E-01
   0.195E+02 -.482E+01 0.191E+02   -.200E+02 0.499E+01 -.196E+02   0.475E+00 -.167E+00 0.465E+00
   0.560E+01 0.436E+01 0.569E+01   -.576E+01 -.451E+01 -.588E+01   0.166E+00 0.148E+00 0.191E+00
   0.580E+01 0.427E+01 0.528E+01   -.598E+01 -.441E+01 -.544E+01   0.186E+00 0.145E+00 0.160E+00
   -.128E+01 0.171E+00 -.879E+00   0.121E+01 -.172E+00 0.831E+00   0.659E-01 -.289E-02 0.448E-01
   -.138E-01 0.632E-02 -.145E-01   -.755E-12 -.131E-12 0.174E-11   0.145E-01 -.424E-02 0.148E-01

 POSITION                                       TOTAL-FORCE (eV/Angst)
      0.00000      0.00035     10.63500         0.000040      0.004170      0.000102
     10.63500      1.77248      1.77217        -0.000078     -0.000020     -0.000310
      1.77560     10.63256      1.77547        -0.003762      0.005830     -0.004056
      1.77218      1.77248     10.63499         0.000442     -0.000112      0.000032
      2.66263      0.88096      2.66254        -0.001009     -0.002069     -0.001145
      0.88740      0.88529      0.88736        -0.002157      0.002905     -0.002125
      0.88588      2.65796      2.65935         0.002201      0.001044     -0.003063
      2.65934      2.65806      0.88591        -0.002433      0.001257      0.002219
      3.54399      0.00098      0.00402        -0.000575      0.002277     -0.003528
      3.54416      1.76963      1.77333        -0.000769      0.001935      0.000105
      5.31884      0.00299      1.76930        -0.001210     -0.001994      0.002472
      5.31750      1.77247     10.63499         0.000166      0.000411     -0.000000
      6.20231      0.88552      2.65934        -0.000052      0.000999      0.002468
      4.43179      0.88690      0.88681        -0.000554      0.001290     -0.001761
      4.43266      2.65932      2.65926         0.000594     -0.000363      0.002337
      6.20320      2.65805      0.88681         0.000782     -0.000838     -0.001629
      7.09102      0.00096     10.63101         0.000822      0.002426      0.003641
      7.09085      1.77528      1.77336         0.001026     -0.001197      0.000489
      8.86649      0.00355      1.76860        -0.004294     -0.000490      0.003698
      8.86282      1.77249     10.63500        -0.000510      0.000256     -0.000080
      9.74913      0.88699      2.65936        -0.002600     -0.000941     -0.003023
      7.97565      0.88689      0.88591         0.002627     -0.000992      0.002374
      7.97237      2.66399      2.66255         0.000887      0.002578     -0.000869
      9.74760      2.65969      0.88735         0.001853     -0.002953     -0.002105
      0.00000      3.54464     10.63500        -0.000284     -0.004324     -0.000087
     10.63052      5.31638      1.77104         0.002018     -0.003120     -0.000383
      1.76850      3.54142      1.76859         0.004362      0.000238      0.003595
      1.77148      5.31643     10.63079        -0.000352     -0.003268      0.001686
      2.65601      4.43233      2.65675         0.001747      0.000111      0.000705
      0.88545      4.43184      0.88537         0.001777     -0.005298      0.001599
      0.88198      6.20426      2.65538        -0.002472     -0.000819     -0.000542
      2.65593      6.20459      0.88265        -0.000711     -0.001171     -0.002703
      3.54399      3.54400     10.63101        -0.000602     -0.002257      0.003304
      3.53162      5.30761      1.75602        -0.001740     -0.003065     -0.001045
      5.31614      3.54197      1.76929         0.001736      0.002495      0.002858
      5.31750      5.31814      0.00002         0.000060      0.000965      0.000346
      6.19662      4.44684      2.67154        -0.000324      0.001311     -0.000073
      4.43123      4.42937      0.88387         0.000406      0.001463     -0.000927
      4.43153      6.21064      2.67037        -0.000691     -0.000202     -0.002287
      6.20244      6.20445      0.88915         0.000770     -0.000862      0.006581
      7.09102      3.54401      0.00399         0.000559     -0.001718     -0.003151
      7.08517      5.32247      1.77858        -0.000826      0.000101     -0.002828
      8.85942      3.54741      1.77546         0.002938     -0.005190     -0.003438
      8.86354      5.31644      0.00423        -0.000146     -0.003099     -0.001507
      9.74417      4.43314      2.66109        -0.000611     -0.002752     -0.001737
      7.97354      4.43343      0.89098         0.001721     -0.002753      0.001040
      7.96669      6.20706      2.66900         0.001867     -0.001239     -0.001160
      9.74942      6.20339      0.88531         0.002246     -0.000876     -0.001833
      0.00001      7.09002      0.00001        -0.000120     -0.000062      0.000075
      0.00455      8.86363      1.77104        -0.002611      0.002954     -0.000854
      1.76685      7.08822      1.76689         0.001542      0.000499      0.001356
      1.77147      8.86358      0.00425        -0.000573      0.003003     -0.001855
      2.66837      7.97294      2.66901        -0.002784      0.001364     -0.002761
      0.88561      7.97663      0.88531        -0.002529      0.000822     -0.001855
      0.89089      9.74684      2.66110         0.000019      0.002727     -0.002047
      2.66147      9.74657      0.89099        -0.002083      0.002915      0.000585
      3.54591      7.09002      0.00004         0.001617     -0.000430      0.000434
      3.54982      8.85755      1.77859         0.000728     -0.000666     -0.003770
      5.31747      7.08998      1.77228         0.000602     -0.001081     -0.007359
      5.31750      8.86189      0.00005         0.000290     -0.001606      0.000323
[...]
      5.31747      7.09008      8.86286         0.000130     -0.000024      0.008011
      5.26550      8.89621      7.13881        -0.002866     -0.004097      0.000500
      6.20245      7.97561      9.74592         0.000735      0.000291     -0.005643
      4.43150      7.96938      7.96485        -0.000700     -0.000922      0.003597
      4.43123      9.75060      9.75118         0.000147     -0.001297      0.001633
      6.19662      9.73305      7.96345         0.000137     -0.001010      0.001354
      7.14669      7.03526      7.14337         0.001643     -0.000978      0.000473
      7.08517      8.85756      8.85648        -0.000526     -0.000524      0.003431
      8.86821      7.08820      8.86816        -0.001583      0.000391     -0.001693
      8.85737      8.85788      7.08547         0.003310     -0.000785     -0.000908
      9.74942      7.97664      9.74971         0.002178      0.000910      0.001947
      7.96668      7.97300      7.96604         0.002504      0.001346      0.002290
      7.97353      9.74657      9.74404         0.001971      0.002628     -0.000644
      9.74415      9.74685      7.97390        -0.000320      0.002773      0.002191
      5.31535      7.09023      5.31594        -0.005470     -0.004132     -0.003736
    total drift:                                0.000692      0.002079      0.000289

  FREE ENERGIE OF THE ION-ELECTRON SYSTEM (eV)
  free  energy   TOTEN  =     -1912.06528469 eV

  energy  without entropy=    -1912.06528469  energy(sigma->0) =    -1912.06528469

 writing wavefunctions