 vasp.6.2.1 16May21 (build Sep 27 2021 21:11:04) gamma-only

 executed on             LinuxIFC date 2023.04.29  11:47:15

 INCAR:
   GGA = PE
   ISTART = 1
   ISPIN = 2
   ENCUT = 370
   ENAUG = 740
   EDIFF = 1E-4
   IBRION = 2
   POTIM = 0.2
   ALGO = All
   NSW = 0
   EDIFFG = -1E-2
   ISMEAR = 0
   SIGMA = 0.01
   ISIF = 1
   LREAL = .FALSE.
   ISYM = 0
   PREC = High
   LVTOT = .TRUE.
   NGXF = 200
   NGYF = 200
   NGZF = 200
   LHFCALC = .TRUE.
   HFSCREEN = 0.2
   TIME = 0.4
   NCORE = 8
   NELM = 60
   NWRITE = 2
   SYMPREC = 1.0e-8

 POTCAR:    PAW_PBE C 08Apr2002
|           W    W    AA    RRRRR   N    N  II  N    N   GGGG   !!!           |
|           W    W   A  A   R    R  NN   N  II  NN   N  G    G  !!!           |
|           W    W  A    A  R    R  N N  N  II  N N  N  G       !!!           |
|           W WW W  AAAAAA  RRRRR   N  N N  II  N  N N  G  GGG   !            |
|           WW  WW  A    A  R   R   N   NN  II  N   NN  G    G                |
|           W    W  A    A  R    R  N    N  II  N    N   GGGG   !!!           |
|     You use a magnetic or noncollinear calculation, but did not specify     |
|     the initial magnetic moment with the MAGMOM tag. Note that a            |
|     default of 1 will be used for all atoms. This ferromagnetic setup       |
|     may break the symmetry of the crystal, in particular it may rule        |
|     out finding an antiferromagnetic solution. Thence, we recommend         |
|     setting the initial magnetic moment manually or verifying carefully     |
|     that this magnetic setup is desired.                                    |

 WARNING: For LVTOT=.TRUE., VASP.5.x writes the TOTAL local potential to the
     file LOCPOT. If you want only the Hartree contributions, use LVHAR=.TRUE.
     instead.

   TITEL  = PAW_PBE C 08Apr2002
   POMASS =   12.011; ZVAL   =    4.000    mass and valenz
   ENMAX  =  400.000; ENMIN  =  300.000 eV

  PAW_PBE C 08Apr2002                   :

 POSCAR: 3D\Atomistic
  positions in direct lattice
  velocities in cartesian coordinates
 exchange correlation table for  LEXCH =        8
   RHO(1)=    0.500       N(1)  =     2000
   RHO(2)=  100.500       N(2)  =     4000

 ion  position               nearest neighbor table
   1  0.000  0.000  0.000-  72 1.53 165 1.53 199 1.53   6 1.53
   2  0.000  0.167  0.167-   7 1.53  21 1.54  24 1.54   6 1.54
   3  0.167  0.000  0.167-   5 1.53  55 1.54  56 1.54   6 1.54
   4  0.167  0.167  0.000-   8 1.53 149 1.54 151 1.54   6 1.54
   5  0.250  0.083  0.250-   3 1.53  81 1.53  76 1.54  10 1.54
   6  0.083  0.083  0.083-   1 1.53   2 1.54   3 1.54   4 1.54
   7  0.083  0.250  0.250-   2 1.53  97 1.53  76 1.54  27 1.54
   8  0.250  0.250  0.083-   4 1.53  33 1.53  27 1.54  10 1.54
   9  0.333  0.000  0.000-  56 1.53 149 1.53 207 1.54  14 1.54
  10  0.333  0.167  0.167-  15 1.54   5 1.54   8 1.54  14 1.54
  11  0.500  0.000  0.167-  13 1.53  63 1.53  64 1.54  14 1.54
  12  0.500  0.167  0.000-  16 1.53 159 1.53 157 1.54  14 1.54
  13  0.583  0.083  0.250-  11 1.53  84 1.54  89 1.54  18 1.54
  14  0.417  0.083  0.083-   9 1.54  11 1.54  12 1.54  10 1.54
  15  0.417  0.250  0.250-  35 1.53  84 1.53  10 1.54 105 1.54
  16  0.583  0.250  0.083-  12 1.53  35 1.54  41 1.54  18 1.54
  17  0.667  0.000  0.000- 215 1.53  22 1.53 157 1.54  64 1.54
  18  0.667  0.167  0.167-  23 1.53  22 1.54  13 1.54  16 1.54
  19  0.833  0.000  0.167-  71 1.53  22 1.54  21 1.54  72 1.54
  20  0.833  0.167  0.000- 167 1.53  22 1.54  24 1.54 165 1.54
  21  0.917  0.083  0.250-  73 1.53   2 1.54  19 1.54  92 1.54
  22  0.750  0.083  0.083-  17 1.53  19 1.54  20 1.54  18 1.54
  23  0.750  0.250  0.250-  18 1.53  43 1.53  92 1.53 113 1.53
  24  0.917  0.250  0.083-  25 1.53   2 1.54  20 1.54  43 1.54
  25  0.000  0.333  0.000-  24 1.53 151 1.53 189 1.54  30 1.54
  26  0.000  0.500  0.167-  31 1.53  45 1.53  48 1.54  30 1.54
  27  0.167  0.333  0.167-  29 1.54   7 1.54   8 1.54  30 1.54
  28  0.167  0.500  0.000-  32 1.53 173 1.53 175 1.54  30 1.54
  29  0.250  0.417  0.250-  34 1.53 100 1.53  27 1.54 105 1.54
  30  0.083  0.417  0.083-  25 1.54  26 1.54  28 1.54  27 1.54
  31  0.083  0.583  0.250-  26 1.53 100 1.54 121 1.54  51 1.54
  32  0.250  0.583  0.083-  28 1.53  34 1.54  57 1.54  51 1.54
  33  0.333  0.333  0.000-   8 1.53 159 1.54 173 1.54  38 1.54
  34  0.333  0.500  0.167-  29 1.53  39 1.54  32 1.54  38 1.54
  35  0.500  0.333  0.167-  15 1.53  37 1.54  16 1.54  38 1.54
  36  0.500  0.500  0.000-  40 1.53 181 1.53 183 1.53  38 1.53
  37  0.583  0.417  0.250- 108 1.53  35 1.54  42 1.54 113 1.54
  38  0.417  0.417  0.083-  36 1.53  33 1.54  35 1.54  34 1.54
  39  0.417  0.583  0.250- 108 1.53  34 1.54  59 1.54 129 1.54
  40  0.583  0.583  0.083-  36 1.53  42 1.54  59 1.54  65 1.54
  41  0.667  0.333  0.000- 167 1.53  46 1.54  16 1.54 181 1.54
  42  0.667  0.500  0.167-  47 1.53  46 1.54  37 1.54  40 1.54
  43  0.833  0.333  0.167-  23 1.53  46 1.54  45 1.54  24 1.54
  44  0.833  0.500  0.000- 191 1.53  46 1.53  48 1.54 189 1.54
  45  0.917  0.417  0.250-  26 1.53  97 1.54 116 1.54  43 1.54
  46  0.750  0.417  0.083-  44 1.53  41 1.54  42 1.54  43 1.54
  47  0.750  0.583  0.250-  42 1.53 116 1.53  67 1.54 137 1.54
  48  0.917  0.583  0.083-  26 1.54  44 1.54  49 1.54  67 1.54
  49  0.000  0.667  0.000- 213 1.53  54 1.53 175 1.54  48 1.54
  50  0.000  0.833  0.167-  69 1.53  54 1.54  55 1.54  72 1.54
  51  0.167  0.667  0.167-  53 1.53  54 1.54  31 1.54  32 1.54
  52  0.167  0.833  0.000- 197 1.53  54 1.54  56 1.54 199 1.54
  53  0.250  0.750  0.250-  51 1.53  58 1.53 124 1.53 129 1.53
  54  0.083  0.750  0.083-  49 1.53  50 1.54  52 1.54  51 1.54
  55  0.083  0.917  0.250-  73 1.53   3 1.54  50 1.54 124 1.54
  56  0.250  0.917  0.083-   9 1.53   3 1.54  52 1.54  58 1.54
  57  0.333  0.667  0.000- 197 1.53  62 1.54  32 1.54 183 1.54
  58  0.333  0.833  0.167-  53 1.53  62 1.54  63 1.54  56 1.54
  59  0.500  0.667  0.167-  61 1.53  62 1.54  39 1.54  40 1.54
  60  0.500  0.833  0.000- 205 1.53  62 1.53  64 1.54 207 1.54
[...]
 202  0.333  0.833  0.833- 206 1.54 197 1.54 200 1.54 207 1.54
 203  0.500  0.667  0.833- 206 1.53 205 1.54 184 1.54 183 1.54
 204  0.500  0.833  0.667- 206 1.53 133 1.54 208 1.54 135 1.54
 205  0.583  0.750  0.917-  60 1.53  65 1.54 203 1.54 210 1.54
 206  0.417  0.750  0.750- 203 1.53 204 1.53 201 1.54 202 1.54
 207  0.417  0.917  0.917-   9 1.54 155 1.54  60 1.54 202 1.54
 208  0.583  0.917  0.750- 155 1.53 161 1.54 204 1.54 210 1.54
 209  0.667  0.667  0.667- 214 1.53 133 1.54 184 1.54 119 1.54
 210  0.667  0.833  0.833- 214 1.53 208 1.54 205 1.54 215 1.54
 211  0.833  0.667  0.833- 214 1.53 192 1.54 213 1.54 191 1.54
 212  0.833  0.833  0.667- 214 1.53 143 1.54 141 1.54 216 1.54
 213  0.917  0.750  0.917-  49 1.53  68 1.54 194 1.54 211 1.54
 214  0.750  0.750  0.750- 209 1.53 210 1.53 211 1.53 212 1.53
 215  0.750  0.917  0.917-  17 1.53  68 1.54 163 1.54 210 1.54
 216  0.917  0.917  0.750- 145 1.53 163 1.54 194 1.54 212 1.54

IMPORTANT INFORMATION: All symmetrisations will be switched off!
NOSYMM: (Re-)initialisation of all symmetry stuff for point group C_1.

                                     Primitive cell

  volume of cell :    1202.8529

  direct lattice vectors                    reciprocal lattice vectors
    10.635000229  0.000000000  0.000000000     0.094029147  0.000000000  0.000000000
     0.000000000 10.635000229  0.000000000     0.000000000  0.094029147  0.000000000
     0.000000000  0.000000000 10.635000229     0.000000000  0.000000000  0.094029147

  length of vectors
    10.635000229 10.635000229 10.635000229     0.094029147  0.094029147  0.094029147

  position of ions in fractional coordinates (direct lattice)
     0.000000000  0.000000000  0.000000000
     0.000000000  0.166669995  0.166669995
     0.166669995  0.000000000  0.166669995
     0.166669995  0.166669995  0.000000000
     0.250000000  0.083329998  0.250000000
     0.083329998  0.083329998  0.083329998
     0.083329998  0.250000000  0.250000000
     0.250000000  0.250000000  0.083329998
     0.333330005  0.000000000  0.000000000
     0.333330005  0.166669995  0.166669995
     0.500000000  0.000000000  0.166669995
     0.500000000  0.166669995  0.000000000
     0.583329976  0.083329998  0.250000000
     0.416669995  0.083329998  0.083329998
     0.416669995  0.250000000  0.250000000
     0.583329976  0.250000000  0.083329998
     0.666670024  0.000000000  0.000000000
     0.666670024  0.166669995  0.166669995
     0.833329976  0.000000000  0.166669995
     0.833329976  0.166669995  0.000000000
     0.916670024  0.083329998  0.250000000
     0.750000000  0.083329998  0.083329998
     0.750000000  0.250000000  0.250000000
     0.916670024  0.250000000  0.083329998
     0.000000000  0.333330005  0.000000000
     0.000000000  0.500000000  0.166669995
     0.166669995  0.333330005  0.166669995
     0.166669995  0.500000000  0.000000000
     0.250000000  0.416669995  0.250000000
     0.083329998  0.416669995  0.083329998
     0.083329998  0.583329976  0.250000000
     0.250000000  0.583329976  0.083329998
     0.333330005  0.333330005  0.000000000
     0.333330005  0.500000000  0.166669995
     0.500000000  0.333330005  0.166669995
     0.500000000  0.500000000  0.000000000
     0.583329976  0.416669995  0.250000000
     0.416669995  0.416669995  0.083329998
     0.416669995  0.583329976  0.250000000
     0.583329976  0.583329976  0.083329998
     0.666670024  0.333330005  0.000000000
     0.666670024  0.500000000  0.166669995
     0.833329976  0.333330005  0.166669995
     0.833329976  0.500000000  0.000000000
     0.916670024  0.416669995  0.250000000
     0.750000000  0.416669995  0.083329998
     0.750000000  0.583329976  0.250000000
     0.916670024  0.583329976  0.083329998
     0.000000000  0.666670024  0.000000000
     0.000000000  0.833329976  0.166669995
     0.166669995  0.666670024  0.166669995
     0.166669995  0.833329976  0.000000000
     0.250000000  0.750000000  0.250000000
     0.083329998  0.750000000  0.083329998
     0.083329998  0.916670024  0.250000000
     0.250000000  0.916670024  0.083329998
     0.333330005  0.666670024  0.000000000
     0.333330005  0.833329976  0.166669995
     0.500000000  0.666670024  0.166669995
     0.500000000  0.833329976  0.000000000
[...]
     0.333330005  0.833329976  0.833329976
     0.500000000  0.666670024  0.833329976
     0.500000000  0.833329976  0.666670024
     0.583329976  0.750000000  0.916670024
     0.416669995  0.750000000  0.750000000
     0.416669995  0.916670024  0.916670024
     0.583329976  0.916670024  0.750000000
     0.666670024  0.666670024  0.666670024
     0.666670024  0.833329976  0.833329976
     0.833329976  0.666670024  0.833329976
     0.833329976  0.833329976  0.666670024
     0.916670024  0.750000000  0.916670024
     0.750000000  0.750000000  0.750000000
     0.750000000  0.916670024  0.916670024
     0.916670024  0.916670024  0.750000000

  ion indices of the primitive-cell ions
   primitive index   ion index
                 1           1
                 2           2
                 3           3
                 4           4
                 5           5
                 6           6
[...]
[...]
    637      21.4158      0.00000
    638      21.4822      0.00000
    639      21.6451      0.00000
    640      22.1175      0.00000
    641      22.1229      0.00000
    642      22.1342      0.00000
    643      22.1486      0.00000
    644      22.1727      0.00000
    645      22.2073      0.00000
    646      22.2240      0.00000
    647      22.2735      0.00000
    648      22.3275      0.00000
    649      22.3806      0.00000
    650      22.4325      0.00000
    651      22.5198      0.00000

 soft charge-density along one line, spin component           1
         0         1         2         3         4         5         6         7         8         9
 total charge-density along one line

 soft charge-density along one line, spin component           2
         0         1         2         3         4         5         6         7         8         9
 total charge-density along one line

------------------------ aborting loop because EDIFF is reached ----------------------------------------

 only isotrope contributions calculated
  for stress because ISIF=1 (only pressure is correct)

  FORCE on cell =-STRESS in cart. coord.  units (eV):
  Direction    XX          YY          ZZ          XY          YZ          ZX
  Alpha Z  3186.28925  3186.28925  3186.28925
  Ewald  -12603.72625-12603.72625-12603.72625     0.00025     0.00025     0.00025
  Hartree   930.29960   930.29960   930.29960     0.00004     0.00003     0.00004
  E(xc)   -2508.06881 -2508.06881 -2508.06881     0.00000     0.00000     0.00000
  Local   -1269.03207 -1269.03210 -1269.03206    -0.00026    -0.00023    -0.00024
  n-local  -677.11615  -677.11615  -677.11615     0.00000     0.00000     0.00000
  augment   -76.93858   -76.93858   -76.93858     0.00000     0.00000     0.00000
  Kinetic 13827.27010 13827.27019 13827.27009    -0.00004    -0.00002    -0.00003
  Fock     -851.18244  -851.18244  -851.18244    -0.00000    -0.00000    -0.00000
  Total     -42.20536   -42.20530   -42.20536    -0.00001     0.00002     0.00001
  in kB     -56.21674   -56.21666   -56.21675    -0.00002     0.00003     0.00001

 VOLUME and BASIS-vectors are now :
  energy-cutoff  :      370.00
  volume of cell :     1202.85
      direct lattice vectors                 reciprocal lattice vectors
    10.635000229  0.000000000  0.000000000     0.094029147  0.000000000  0.000000000
     0.000000000 10.635000229  0.000000000     0.000000000  0.094029147  0.000000000
     0.000000000  0.000000000 10.635000229     0.000000000  0.000000000  0.094029147

  length of vectors
    10.635000229 10.635000229 10.635000229     0.094029147  0.094029147  0.094029147

 FORCES acting on ions:
    Electron-Ion                     Ewald-Force                    Non-Local-Force
   0.233E-04 0.145E-04 0.199E-04   -.169E-04 -.169E-04 -.169E-04   0.192E-05 0.200E-05 0.176E-05
   0.268E-04 0.535E-02 0.536E-02   -.182E-04 -.704E-02 -.704E-02   0.132E-05 -.120E-02 -.120E-02
   0.537E-02 0.221E-04 0.536E-02   -.704E-02 -.182E-04 -.704E-02   -.120E-02 -.142E-05 -.120E-02
   0.537E-02 0.536E-02 0.186E-04   -.704E-02 -.704E-02 -.182E-04   -.120E-02 -.120E-02 0.148E-05
   0.500E-05 -.538E-02 -.266E-05   -.167E-05 0.706E-02 -.167E-05   0.711E-06 0.118E-02 -.249E-05
   -.537E-02 -.538E-02 -.537E-02   0.706E-02 0.706E-02 0.706E-02   0.120E-02 0.121E-02 0.121E-02
   -.537E-02 -.674E-05 -.273E-05   0.706E-02 -.167E-05 -.167E-05   0.118E-02 0.254E-08 -.182E-05
   0.277E-06 -.497E-05 -.538E-02   -.167E-05 -.167E-05 0.706E-02   0.122E-05 0.398E-06 0.118E-02
   -.537E-02 0.199E-04 0.229E-04   0.704E-02 -.169E-04 -.169E-04   0.118E-02 0.266E-05 0.244E-06
   -.536E-02 0.535E-02 0.536E-02   0.704E-02 -.704E-02 -.704E-02   0.120E-02 -.120E-02 -.120E-02
   -.296E-04 0.149E-04 0.536E-02   0.169E-04 -.169E-04 -.704E-02   -.246E-05 0.273E-06 -.118E-02
   -.285E-04 0.536E-02 0.180E-04   0.169E-04 -.704E-02 -.169E-04   -.229E-05 -.118E-02 0.237E-05
   -.542E-02 -.538E-02 0.207E-05   0.711E-02 0.706E-02 -.341E-06   0.121E-02 0.121E-02 -.104E-05
   0.535E-02 -.538E-02 -.537E-02   -.704E-02 0.706E-02 0.706E-02   -.120E-02 0.121E-02 0.121E-02
   0.535E-02 -.849E-05 -.257E-05   -.704E-02 -.167E-05 -.167E-05   -.118E-02 0.123E-05 -.101E-05
   -.542E-02 -.614E-05 -.538E-02   0.711E-02 -.341E-06 0.706E-02   0.121E-02 0.120E-05 0.120E-02
   0.541E-02 0.111E-04 0.148E-04   -.711E-02 -.169E-04 -.169E-04   -.119E-02 0.384E-05 0.185E-06
   0.541E-02 0.535E-02 0.537E-02   -.711E-02 -.704E-02 -.704E-02   -.121E-02 -.120E-02 -.120E-02
   -.540E-02 0.130E-04 0.537E-02   0.710E-02 -.156E-04 -.704E-02   0.121E-02 0.320E-05 -.120E-02
   -.540E-02 0.536E-02 0.135E-04   0.710E-02 -.704E-02 -.156E-04   0.121E-02 -.120E-02 0.261E-05
   0.542E-02 -.538E-02 0.105E-04   -.711E-02 0.706E-02 -.300E-05   -.121E-02 0.120E-02 -.174E-05
   0.292E-05 -.538E-02 -.537E-02   -.193E-05 0.706E-02 0.706E-02   -.608E-06 0.120E-02 0.120E-02
   0.611E-05 -.170E-05 0.886E-05   -.325E-05 -.167E-05 -.167E-05   0.610E-06 0.716E-07 0.228E-06
   0.543E-02 0.101E-05 -.537E-02   -.711E-02 -.300E-05 0.706E-02   -.121E-02 0.119E-05 0.120E-02
   0.245E-04 -.536E-02 0.162E-04   -.169E-04 0.704E-02 -.169E-04   0.217E-05 0.118E-02 0.177E-06
   0.204E-04 -.175E-04 0.536E-02   -.169E-04 0.169E-04 -.704E-02   -.159E-05 -.546E-06 -.118E-02
   0.536E-02 -.537E-02 0.536E-02   -.704E-02 0.704E-02 -.704E-02   -.120E-02 0.120E-02 -.121E-02
   0.536E-02 -.189E-04 0.135E-04   -.704E-02 0.169E-04 -.169E-04   -.118E-02 -.277E-05 -.120E-05
   0.285E-05 0.536E-02 -.700E-05   -.167E-05 -.704E-02 -.167E-05   0.342E-06 -.118E-02 0.279E-06
   -.537E-02 0.536E-02 -.538E-02   0.706E-02 -.704E-02 0.706E-02   0.121E-02 -.121E-02 0.121E-02
   -.537E-02 -.541E-02 -.594E-05   0.706E-02 0.711E-02 -.341E-06   0.121E-02 0.121E-02 -.404E-05
   -.652E-06 -.541E-02 -.538E-02   -.341E-06 0.711E-02 0.706E-02   -.457E-06 0.121E-02 0.120E-02
   -.537E-02 -.537E-02 0.129E-04   0.704E-02 0.704E-02 -.182E-04   0.120E-02 0.120E-02 0.317E-05
   -.537E-02 -.210E-04 0.536E-02   0.704E-02 0.182E-04 -.704E-02   0.120E-02 -.427E-05 -.120E-02
   -.275E-04 -.536E-02 0.536E-02   0.182E-04 0.704E-02 -.704E-02   -.104E-05 0.120E-02 -.120E-02
   -.194E-04 -.137E-04 0.154E-04   0.169E-04 0.169E-04 -.169E-04   -.341E-05 -.107E-05 0.265E-05
   -.541E-02 0.537E-02 0.353E-05   0.711E-02 -.704E-02 -.299E-05   0.121E-02 -.120E-02 -.111E-05
   0.536E-02 0.536E-02 -.538E-02   -.704E-02 -.704E-02 0.706E-02   -.120E-02 -.121E-02 0.121E-02
   0.536E-02 -.541E-02 -.295E-05   -.704E-02 0.711E-02 -.299E-05   -.120E-02 0.121E-02 0.140E-05
   -.542E-02 -.541E-02 -.538E-02   0.711E-02 0.711E-02 0.706E-02   0.121E-02 0.121E-02 0.120E-02
   0.541E-02 -.536E-02 0.121E-04   -.711E-02 0.704E-02 -.156E-04   -.121E-02 0.120E-02 0.143E-05
   0.542E-02 -.114E-04 0.536E-02   -.711E-02 0.155E-04 -.704E-02   -.121E-02 -.431E-06 -.120E-02
   -.540E-02 -.536E-02 0.537E-02   0.710E-02 0.704E-02 -.704E-02   0.121E-02 0.120E-02 -.120E-02
   -.541E-02 -.791E-05 0.147E-04   0.710E-02 0.169E-04 -.169E-04   0.119E-02 -.260E-05 0.798E-06
   0.542E-02 0.536E-02 -.812E-06   -.711E-02 -.704E-02 -.343E-06   -.121E-02 -.120E-02 0.121E-05
   0.544E-05 0.537E-02 -.537E-02   -.457E-05 -.704E-02 0.706E-02   0.133E-06 -.120E-02 0.121E-02
   0.431E-05 -.541E-02 0.424E-05   -.325E-05 0.711E-02 -.167E-05   0.540E-06 0.119E-02 0.195E-05
   0.542E-02 -.541E-02 -.538E-02   -.711E-02 0.711E-02 0.706E-02   -.121E-02 0.121E-02 0.121E-02
   0.196E-04 0.542E-02 0.134E-04   -.169E-04 -.711E-02 -.169E-04   0.210E-05 -.119E-02 0.361E-05
   0.201E-04 -.541E-02 0.536E-02   -.156E-04 0.710E-02 -.704E-02   0.190E-06 0.121E-02 -.120E-02
   0.536E-02 0.542E-02 0.535E-02   -.704E-02 -.711E-02 -.704E-02   -.120E-02 -.121E-02 -.120E-02
   0.536E-02 -.541E-02 0.143E-04   -.704E-02 0.710E-02 -.156E-04   -.120E-02 0.121E-02 -.507E-06
   0.249E-05 0.120E-04 -.414E-05   -.167E-05 -.325E-05 -.167E-05   0.782E-06 -.126E-05 -.284E-05
   -.537E-02 0.290E-05 -.538E-02   0.706E-02 -.193E-05 0.706E-02   0.120E-02 -.228E-05 0.120E-02
   -.537E-02 0.542E-02 0.346E-05   0.706E-02 -.711E-02 -.300E-05   0.120E-02 -.121E-02 0.338E-05
   0.551E-05 0.543E-02 -.537E-02   -.300E-05 -.711E-02 0.706E-02   -.193E-06 -.121E-02 0.120E-02
   -.536E-02 0.542E-02 0.150E-04   0.704E-02 -.711E-02 -.156E-04   0.120E-02 -.121E-02 0.164E-05
   -.536E-02 -.540E-02 0.536E-02   0.704E-02 0.710E-02 -.704E-02   0.120E-02 0.121E-02 -.120E-02
   -.157E-04 0.543E-02 0.536E-02   0.155E-04 -.711E-02 -.704E-02   -.313E-05 -.121E-02 -.120E-02
   -.205E-04 -.541E-02 0.182E-04   0.169E-04 0.710E-02 -.169E-04   -.247E-05 0.119E-02 0.126E-05
[...]
   -.180E-04 0.542E-02 -.540E-02   0.182E-04 -.711E-02 0.710E-02   -.300E-06 -.121E-02 0.121E-02
   -.172E-04 -.541E-02 0.541E-02   0.182E-04 0.710E-02 -.711E-02   -.336E-05 0.121E-02 -.121E-02
   -.542E-02 0.160E-05 0.542E-02   0.711E-02 -.459E-05 -.711E-02   0.121E-02 0.336E-05 -.121E-02
   0.537E-02 0.668E-05 0.827E-05   -.704E-02 -.325E-05 -.325E-05   -.118E-02 -.165E-05 -.250E-05
   0.536E-02 0.542E-02 0.542E-02   -.704E-02 -.711E-02 -.711E-02   -.120E-02 -.121E-02 -.121E-02
   -.541E-02 0.541E-02 0.641E-06   0.711E-02 -.711E-02 -.459E-05   0.121E-02 -.121E-02 0.715E-06
   0.541E-02 0.542E-02 0.541E-02   -.711E-02 -.711E-02 -.711E-02   -.121E-02 -.122E-02 -.121E-02
   0.542E-02 -.541E-02 -.541E-02   -.711E-02 0.710E-02 0.710E-02   -.121E-02 0.121E-02 0.122E-02
   -.541E-02 0.542E-02 -.541E-02   0.710E-02 -.711E-02 0.710E-02   0.121E-02 -.121E-02 0.121E-02
   -.541E-02 -.541E-02 0.541E-02   0.710E-02 0.710E-02 -.711E-02   0.121E-02 0.122E-02 -.121E-02
   0.542E-02 0.538E-07 0.542E-02   -.711E-02 -.191E-05 -.711E-02   -.121E-02 -.466E-06 -.121E-02
   0.389E-05 0.666E-05 0.368E-05   -.325E-05 -.325E-05 -.325E-05   -.145E-05 -.494E-08 0.199E-05
   0.656E-06 0.541E-02 0.541E-02   -.191E-05 -.711E-02 -.711E-02   -.571E-06 -.121E-02 -.121E-02
   0.542E-02 0.542E-02 -.329E-05   -.711E-02 -.711E-02 -.191E-05   -.121E-02 -.121E-02 -.389E-06
   0.789E-05 -.327E-05 0.114E-04   -.169E-11 0.411E-12 -.399E-11   -.600E-06 0.209E-04 -.512E-04

 POSITION                                       TOTAL-FORCE (eV/Angst)
      0.00000      0.00000      0.00000         0.000009     -0.000000      0.000005
      0.00000      1.77254      1.77254         0.000010     -0.002955     -0.002946
      1.77254      0.00000      1.77254        -0.002945      0.000002     -0.002950
      1.77254      1.77254      0.00000        -0.002942     -0.002947      0.000002
      2.65875      0.88621      2.65875         0.000004      0.002924     -0.000007
      0.88621      0.88621      0.88621         0.002962      0.002953      0.002958
      0.88621      2.65875      2.65875         0.002932     -0.000009     -0.000006
      2.65875      2.65875      0.88621        -0.000000     -0.000006      0.002926
      3.54496      0.00000      0.00000         0.002924      0.000006      0.000007
      3.54496      1.77254      1.77254         0.002945     -0.002959     -0.002952
      5.31750      0.00000      1.77254        -0.000015     -0.000002     -0.002926
      5.31750      1.77254      0.00000        -0.000014     -0.002930      0.000004
      6.20371      0.88621      2.65875         0.002967      0.002949      0.000001
      4.43129      0.88621      0.88621        -0.002962      0.002949      0.002959
      4.43129      2.65875      2.65875        -0.002931     -0.000009     -0.000005
      6.20371      2.65875      0.88621         0.002965     -0.000005      0.002952
      7.09004      0.00000      0.00000        -0.002955     -0.000002     -0.000002
      7.09004      1.77254      1.77254        -0.002979     -0.002956     -0.002944
      8.86246      0.00000      1.77254         0.002978      0.000001     -0.002943
      8.86246      1.77254      0.00000         0.002979     -0.002951      0.000001
      9.74879      0.88621      2.65875        -0.002973      0.002946      0.000006
      7.97625      0.88621      0.88621         0.000000      0.002949      0.002955
      7.97625      2.65875      2.65875         0.000004     -0.000003      0.000008
      9.74879      2.65875      0.88621        -0.002965     -0.000001      0.002955
      0.00000      3.54496      0.00000         0.000010      0.002927     -0.000000
      0.00000      5.31750      1.77254         0.000002     -0.000001     -0.002932
      1.77254      3.54496      1.77254        -0.002947      0.002944     -0.002957
      1.77254      5.31750      0.00000        -0.002929     -0.000005     -0.000004
      2.65875      4.43129      2.65875         0.000002     -0.002929     -0.000008
      0.88621      4.43129      0.88621         0.002962     -0.002949      0.002952
      0.88621      6.20371      2.65875         0.002956      0.002973     -0.000010
      2.65875      6.20371      0.88621        -0.000001      0.002975      0.002950
      3.54496      3.54496      0.00000         0.002941      0.002941     -0.000002
      3.54496      5.31750      1.77254         0.002944     -0.000007     -0.002955
      5.31750      3.54496      1.77254        -0.000010      0.002946     -0.002948
      5.31750      5.31750      0.00000        -0.000006      0.000002      0.000002
      6.20371      4.43129      2.65875         0.002972     -0.002945     -0.000001
      4.43129      4.43129      0.88621        -0.002957     -0.002951      0.002953
      4.43129      6.20371      2.65875        -0.002946      0.002976     -0.000005
      6.20371      6.20371      0.88621         0.002972      0.002981      0.002948
      7.09004      3.54496      0.00000        -0.002977      0.002953     -0.000002
      7.09004      5.31750      1.77254        -0.002973      0.000004     -0.002949
      8.86246      3.54496      1.77254         0.002979      0.002950     -0.002946
      8.86246      5.31750      0.00000         0.002952      0.000006     -0.000001
      9.74879      4.43129      2.65875        -0.002974     -0.002949      0.000001
      7.97625      4.43129      0.88621         0.000001     -0.002940      0.002956
      7.97625      6.20371      2.65875         0.000002      0.002951      0.000005
      9.74879      6.20371      0.88621        -0.002974      0.002976      0.002950
      0.00000      7.09004      0.00000         0.000005     -0.002950      0.000000
      0.00000      8.86246      1.77254         0.000005      0.002975     -0.002943
      1.77254      7.09004      1.77254        -0.002950     -0.002975     -0.002959
      1.77254      8.86246      0.00000        -0.002950      0.002975     -0.000001
      2.65875      7.97625      2.65875         0.000002      0.000007     -0.000009
      0.88621      7.97625      0.88621         0.002955     -0.000001      0.002950
      0.88621      9.74879      2.65875         0.002954     -0.002969      0.000004
      2.65875      9.74879      0.88621         0.000002     -0.002966      0.002956
      3.54496      7.09004      0.00000         0.002950     -0.002969      0.000002
      3.54496      8.86246      1.77254         0.002952      0.002981     -0.002954
      5.31750      7.09004      1.77254        -0.000004     -0.002964     -0.002953
      5.31750      8.86246      0.00000        -0.000006      0.002947      0.000003
[...]
      3.54496      8.86246      8.86246         0.002952      0.002975      0.002980
      5.31750      7.09004      8.86246         0.000000     -0.002965      0.002979
      5.31750      8.86246      7.09004        -0.000002      0.002971     -0.002973
      6.20371      7.97625      9.74879         0.002972      0.000000     -0.002968
      4.43129      7.97625      7.97625        -0.002921      0.000002      0.000003
      4.43129      9.74879      9.74879        -0.002950     -0.002975     -0.002972
      6.20371      9.74879      7.97625         0.002972     -0.002978     -0.000003
      7.09004      7.09004      7.09004        -0.002977     -0.002970     -0.002976
      7.09004      8.86246      8.86246        -0.002974      0.002970      0.002978
      8.86246      7.09004      8.86246         0.002971     -0.002969      0.002977
      8.86246      8.86246      7.09004         0.002975      0.002979     -0.002975
      9.74879      7.97625      9.74879        -0.002977     -0.000002     -0.002973
      7.97625      7.97625      7.97625        -0.000001      0.000003      0.000003
      7.97625      9.74879      9.74879        -0.000002     -0.002983     -0.002980
      9.74879      9.74879      7.97625        -0.002971     -0.002973     -0.000005
    total drift:                                0.000007      0.000019     -0.000043

  FREE ENERGIE OF THE ION-ELECTRON SYSTEM (eV)
  free  energy   TOTEN  =     -2280.20785187 eV

  energy  without entropy=    -2280.20785187  energy(sigma->0) =    -2280.20785187

 writing wavefunctions