 vasp.6.2.1 16May21 (build Sep 27 2021 21:11:04) gamma-only

 executed on             LinuxIFC date 2023.05.07  14:14:18

 INCAR:
   GGA = PE
   ISTART = 1
   ISPIN = 2
   ENCUT = 370
   ENAUG = 740
   EDIFF = 1E-4
   IBRION = 2
   POTIM = 0.2
   ALGO = All
   NSW = 0
   EDIFFG = -1E-2
   ISMEAR = 0
   SIGMA = 0.01
   ISIF = 1
   LREAL = .FALSE.
   ISYM = 0
   NELECT = 864
   PREC = Accurate
   LVTOT = .TRUE.
   NGXF = 200
   NGYF = 200
   NGZF = 200
   LHFCALC = .TRUE.
   HFSCREEN = 0.2
   NCORE = 8
   NELM = 60
   NWRITE = 2
   SYMPREC = 1.0e-8

 POTCAR:    PAW_PBE C 08Apr2002
 POTCAR:    PAW_PBE Pr 23Dec2003
|           W    W    AA    RRRRR   N    N  II  N    N   GGGG   !!!           |
|           W    W   A  A   R    R  NN   N  II  NN   N  G    G  !!!           |
|           W    W  A    A  R    R  N N  N  II  N N  N  G       !!!           |
|           W WW W  AAAAAA  RRRRR   N  N N  II  N  N N  G  GGG   !            |
|           WW  WW  A    A  R   R   N   NN  II  N   NN  G    G                |
|           W    W  A    A  R    R  N    N  II  N    N   GGGG   !!!           |
|     You use a magnetic or noncollinear calculation, but did not specify     |
|     the initial magnetic moment with the MAGMOM tag. Note that a            |
|     default of 1 will be used for all atoms. This ferromagnetic setup       |
|     may break the symmetry of the crystal, in particular it may rule        |
|     out finding an antiferromagnetic solution. Thence, we recommend         |
|     setting the initial magnetic moment manually or verifying carefully     |
|     that this magnetic setup is desired.                                    |

 WARNING: For LVTOT=.TRUE., VASP.5.x writes the TOTAL local potential to the
     file LOCPOT. If you want only the Hartree contributions, use LVHAR=.TRUE.
     instead.

   TITEL  = PAW_PBE C 08Apr2002
   POMASS =   12.011; ZVAL   =    4.000    mass and valenz
   ENMAX  =  400.000; ENMIN  =  300.000 eV

   TITEL  = PAW_PBE Pr 23Dec2003
   POMASS =  140.907; ZVAL   =   13.000    mass and valenz
   ENMAX  =  272.941; ENMIN  =  204.706 eV

  PAW_PBE C 08Apr2002                   :
  PAW_PBE Pr 23Dec2003                  :

 POSCAR: prv2
  positions in direct lattice
  velocities in cartesian coordinates
 exchange correlation table for  LEXCH =        8
   RHO(1)=    0.500       N(1)  =     2000
   RHO(2)=  100.500       N(2)  =     4000

 ion  position               nearest neighbor table
   1  0.000  0.000  1.000- 162 1.53   6 1.53 196 1.54  72 1.54
   2  1.000  0.167  0.167-   7 1.53  24 1.53  21 1.53   6 1.54
   3  0.166  0.000  0.166-   5 1.53   6 1.53  56 1.54  55 1.54
   4  0.167  0.167  1.000-   8 1.53 148 1.53 146 1.53   6 1.54
   5  0.249  0.084  0.249-  81 1.53   3 1.53  10 1.53  76 1.53
   6  0.083  0.084  0.083-   1 1.53   3 1.53   4 1.54   2 1.54
   7  0.083  0.250  0.250-   2 1.53  76 1.53  27 1.54  97 1.54
   8  0.250  0.250  0.083-   4 1.53  10 1.53  27 1.54  33 1.54
   9  0.333  0.000  1.000- 204 1.53  14 1.53 146 1.53  56 1.53
  10  0.333  0.166  0.166-  15 1.53  14 1.53   8 1.53   5 1.53
  11  0.500  0.001  0.166-  63 1.52  14 1.53  64 1.53  13 1.54
  12  0.500  0.167  1.000-  14 1.53 154 1.53  16 1.53 156 1.53
  13  0.583  0.084  0.250-  84 1.53  18 1.53  11 1.54  89 1.54
  14  0.417  0.084  0.082-  11 1.53  12 1.53  10 1.53   9 1.53
  15  0.416  0.249  0.249-  10 1.53 105 1.53  35 1.54  84 1.54
  16  0.583  0.250  0.083-  35 1.52  12 1.53  41 1.53  18 1.53
  17  0.667  0.000  0.000-  64 1.53 154 1.53  22 1.53 212 1.53
  18  0.667  0.167  0.167-  13 1.53  22 1.53  16 1.53  23 1.54
  19  0.833  0.000  0.167-  21 1.53  22 1.53  72 1.53  71 1.54
  20  0.833  0.167  0.000- 164 1.53  24 1.53  22 1.53 162 1.54
  21  0.916  0.084  0.250-  19 1.53  73 1.53  92 1.53   2 1.53
  22  0.750  0.084  0.084-  19 1.53  17 1.53  18 1.53  20 1.53
  23  0.750  0.250  0.250-  43 1.53 111 1.53  92 1.54  18 1.54
  24  0.917  0.250  0.083-  20 1.53   2 1.53  25 1.54  43 1.54
  25  0.000  0.334  1.000-  30 1.53 186 1.53  24 1.54 148 1.54
  26  0.999  0.500  0.166-  31 1.53  48 1.53  45 1.54  30 1.54
  27  0.166  0.333  0.166-  29 1.53  30 1.53   7 1.54   8 1.54
  28  0.166  0.500  0.999-  32 1.53 172 1.53 170 1.54  30 1.54
  29  0.249  0.417  0.249-  27 1.53  34 1.54 100 1.54 105 1.54
  30  0.083  0.417  0.083-  25 1.53  27 1.53  28 1.54  26 1.54
  31  0.082  0.584  0.249- 100 1.53  26 1.53 119 1.54  51 1.54
  32  0.249  0.584  0.082-  34 1.53  28 1.53  57 1.54  51 1.54
  33  0.333  0.334  0.999-  38 1.53 156 1.53   8 1.54 170 1.54
  34  0.331  0.500  0.165-  32 1.53  39 1.53  29 1.54  38 1.54
  35  0.500  0.332  0.165-  16 1.52  15 1.54  38 1.54  37 1.54
  36  0.500  0.500  1.000- 178 1.53  38 1.53 180 1.54  40 1.54
  37  0.583  0.416  0.250- 108 1.48  42 1.53 111 1.54  35 1.54
  38  0.416  0.417  0.083-  33 1.53  36 1.53  34 1.54  35 1.54
  39  0.415  0.583  0.248- 108 1.51  34 1.53  59 1.54 127 1.56
  40  0.583  0.584  0.084-  59 1.53  42 1.53  65 1.54  36 1.54
  41  0.667  0.334  0.001- 178 1.53  16 1.53 164 1.54  46 1.54
  42  0.666  0.501  0.168-  40 1.53  37 1.53  47 1.54  46 1.54
  43  0.833  0.334  0.167-  45 1.53  46 1.53  23 1.53  24 1.54
  44  0.834  0.500  0.001- 188 1.53  48 1.53  46 1.54 186 1.54
  45  0.916  0.417  0.250-  43 1.53  97 1.54  26 1.54 114 1.54
  46  0.750  0.417  0.084-  43 1.53  41 1.54  44 1.54  42 1.54
  47  0.748  0.585  0.252- 134 1.51  42 1.54 114 1.54  67 1.55
  48  0.916  0.584  0.084-  44 1.53  26 1.53  67 1.54  49 1.54
  49  0.000  0.667  1.000-  54 1.53 210 1.53  48 1.54 172 1.54
  50  1.000  0.834  0.167-  72 1.53  55 1.53  54 1.54  69 1.54
  51  0.165  0.667  0.165-  53 1.52  54 1.52  31 1.54  32 1.54
  52  0.167  0.834  1.000- 196 1.53  56 1.53  54 1.54 194 1.54
  53  0.248  0.751  0.248- 127 1.52  51 1.52 122 1.54  58 1.54
  54  0.083  0.750  0.083-  51 1.52  49 1.53  50 1.54  52 1.54
  55  0.083  0.917  0.250- 122 1.53  50 1.53  73 1.53   3 1.54
  56  0.250  0.917  0.083-  58 1.53  52 1.53   9 1.53   3 1.54
  57  0.333  0.667  0.999- 194 1.53 180 1.54  32 1.54  62 1.54
  58  0.333  0.834  0.166-  56 1.53  62 1.54  53 1.54  63 1.54
  59  0.500  0.667  0.167-  40 1.53  39 1.54  62 1.54  61 1.54
  60  0.500  0.834  1.000-  64 1.54 204 1.54  62 1.54 202 1.54
[...]
 200  0.500  0.667  0.833- 180 1.53 181 1.54 202 1.54 203 1.54
 201  0.501  0.836  0.668- 130 1.49 205 1.53 203 1.54 132 1.54
 202  0.583  0.750  0.917-  60 1.54 207 1.54  65 1.54 200 1.54
 203  0.417  0.750  0.749- 198 1.51 200 1.54 201 1.54 199 1.54
 204  0.417  0.917  0.917-   9 1.53 199 1.53 152 1.53  60 1.54
 205  0.583  0.919  0.752- 152 1.52 201 1.53 158 1.54 207 1.54
 206  0.669  0.669  0.669- 130 1.52 211 1.52 181 1.56 117 1.56 214 2.63
 207  0.667  0.834  0.834- 212 1.53 202 1.54 211 1.54 205 1.54
 208  0.835  0.667  0.835- 211 1.52 210 1.52 188 1.54 189 1.54
 209  0.834  0.834  0.667- 213 1.53 138 1.54 211 1.54 140 1.54
 210  0.917  0.750  0.917- 208 1.52  49 1.53  68 1.54 191 1.54
 211  0.752  0.751  0.752- 206 1.52 208 1.52 207 1.54 209 1.54
 212  0.750  0.917  0.917- 207 1.53  68 1.53  17 1.53 160 1.54
 213  0.917  0.917  0.750- 209 1.53 191 1.53 142 1.53 160 1.54
 214  0.500  0.608  0.500- 131 2.16 130 2.16 106 2.24 177 2.24 108 2.24 112 2.24 110 2.46 109 2.46
                           198 2.60 134 2.60 127 2.63 206 2.63

IMPORTANT INFORMATION: All symmetrisations will be switched off!
NOSYMM: (Re-)initialisation of all symmetry stuff for point group C_1.

                                     Primitive cell

  volume of cell :    1202.8529

  direct lattice vectors                    reciprocal lattice vectors
    10.635000229  0.000000000  0.000000000     0.094029147  0.000000000  0.000000000
     0.000000000 10.635000229  0.000000000     0.000000000  0.094029147  0.000000000
     0.000000000  0.000000000 10.635000229     0.000000000  0.000000000  0.094029147

  length of vectors
    10.635000229 10.635000229 10.635000229     0.094029147  0.094029147  0.094029147

  position of ions in fractional coordinates (direct lattice)
     0.000000117  0.000254303  0.999999877
     0.999638696  0.166937864  0.166560750
     0.166290329  0.000207534  0.166290215
     0.166560831  0.166937824  0.999638521
     0.249372238  0.083714037  0.249372263
     0.083142008  0.083680705  0.083141890
     0.082717931  0.250294866  0.249670573
     0.249670601  0.250294905  0.082717816
     0.333224428  0.000415627  0.999648256
     0.332823822  0.166416927  0.165576246
     0.499738051  0.001358124  0.165505821
     0.499999932  0.166875982  0.999999946
     0.583255624  0.083758461  0.249771372
     0.416518147  0.083859208  0.082498782
     0.416084532  0.248923634  0.248535390
     0.583236217  0.249836910  0.083016769
     0.666775549  0.000415688  0.000351568
     0.666616316  0.167015031  0.166783134
     0.833124154  0.000315378  0.166875849
     0.833439251  0.166937863  0.000361307
     0.916355399  0.083666734  0.249999127
     0.750000871  0.083666732  0.083644602
     0.749737033  0.250427471  0.250262968
     0.916500779  0.250399563  0.083499221
     0.000000062  0.333591273  0.999999943
     0.999183612  0.500326953  0.166382579
     0.165824760  0.333406357  0.165824712
     0.166382616  0.500326962  0.999183464
     0.248681245  0.416537805  0.248681319
     0.082893637  0.417021180  0.082893449
     0.082060778  0.583712532  0.249032928
     0.249032902  0.583712552  0.082060514
     0.333166177  0.333607730  0.999430768
     0.331485863  0.500266681  0.164789712
     0.499764827  0.332301025  0.165375466
     0.499999833  0.500364700  0.999999717
     0.582558577  0.416158090  0.249685785
     0.416304859  0.416772928  0.082695336
     0.415477780  0.582753914  0.248160996
     0.583177078  0.583648376  0.083754981
     0.666833679  0.333607799  0.000569006
     0.666017426  0.500556322  0.167637452
     0.832991723  0.333768305  0.167008283
     0.833617425  0.500326953  0.000816389
     0.915861457  0.417238202  0.250236159
     0.749763839  0.417238202  0.084138543
     0.747779001  0.584612898  0.252220995
     0.916394569  0.583818869  0.083605426
     0.000000105  0.667038219  0.999999893
     0.999528229  0.833649324  0.166584882
     0.165233012  0.667181414  0.165232922
     0.166585105  0.833649218  0.999527902
     0.247732512  0.750503103  0.247732667
     0.082691801  0.750461200  0.082691648
     0.082716695  0.917114077  0.249701236
     0.249701136  0.917114132  0.082716468
     0.333240733  0.666998704  0.999434925
     0.332916191  0.834074895  0.165698443
     0.499870462  0.666929004  0.166693531
     0.499999922  0.833754768  0.999999890
[...]
     0.500129045  0.666928944  0.833306039
     0.501188958  0.836158623  0.668485179
     0.583478021  0.750276663  0.916925254
     0.416861233  0.750077704  0.749093037
     0.416699078  0.917290795  0.916838409
     0.583382849  0.919114521  0.752038100
     0.669349549  0.669040520  0.669349977
     0.667083782  0.834074974  0.834301515
     0.834767079  0.667181417  0.834766983
     0.834301552  0.834074897  0.667083801
     0.917308347  0.750461200  0.917308195
     0.752267329  0.750503103  0.752267486
     0.750298759  0.917114073  0.917283300
[...]
[...]
    634      21.0127      0.00000
    635      21.0523      0.00000
    636      21.0526      0.00000
    637      21.0553      0.00000
    638      21.0897      0.00000
    639      21.1349      0.00000
    640      21.1500      0.00000
    641      21.1878      0.00000
    642      21.1991      0.00000
    643      21.2387      0.00000
    644      21.3271      0.00000
    645      21.5153      0.00000
    646      21.6751      0.00000
    647      21.9175      0.00000
    648      21.9716      0.00000

 soft charge-density along one line, spin component           1
         0         1         2         3         4         5         6         7         8         9
 total charge-density along one line

 soft charge-density along one line, spin component           2
         0         1         2         3         4         5         6         7         8         9
 total charge-density along one line

------------------------ aborting loop because EDIFF is reached ----------------------------------------

 only isotrope contributions calculated
  for stress because ISIF=1 (only pressure is correct)

  FORCE on cell =-STRESS in cart. coord.  units (eV):
  Direction    XX          YY          ZZ          XY          YZ          ZX
  Alpha Z  3287.54863  3287.54863  3287.54863
  Ewald  -12889.78067-12806.09500-12889.78064     0.00463    -0.00456    41.22174
  Hartree   955.45138   988.91547   955.45123     0.00050    -0.00048    27.06406
  E(xc)   -2511.38148 -2511.30552 -2511.38148     0.00000    -0.00000    -0.01257
  Local   -1161.62834 -1269.36008 -1161.62787    -0.00425     0.00410   -69.58918
  n-local  -619.74031  -619.74031  -619.74031     0.00000     0.00000     0.00000
  augment   -76.92421   -76.92421   -76.92421     0.00000     0.00000     0.00000
  Kinetic 13843.25056 13845.82747 13843.25123     0.00003    -0.00005    18.51765
  Fock     -860.99187  -862.07114  -860.99184    -0.00001     0.00006    -1.47105
  Total     -34.19631   -23.20469   -34.19527     0.00090    -0.00093    15.73066
  in kB     -45.54884   -30.90821   -45.54745     0.00120    -0.00123    20.95294

 VOLUME and BASIS-vectors are now :
  energy-cutoff  :      370.00
  volume of cell :     1202.85
      direct lattice vectors                 reciprocal lattice vectors
    10.635000229  0.000000000  0.000000000     0.094029147  0.000000000  0.000000000
     0.000000000 10.635000229  0.000000000     0.000000000  0.094029147  0.000000000
     0.000000000  0.000000000 10.635000229     0.000000000  0.000000000  0.094029147

  length of vectors
    10.635000229 10.635000229 10.635000229     0.094029147  0.094029147  0.094029147

 FORCES acting on ions:
    Electron-Ion                     Ewald-Force                    Non-Local-Force
   0.539E-03 0.138E+01 -.499E-03   -.542E-03 -.133E+01 0.542E-03   -.137E-04 -.688E-02 0.218E-04
   0.985E+00 0.255E+00 0.760E+00   -.103E+01 -.286E+00 -.837E+00   0.331E-01 0.358E-01 0.597E-01
   0.777E+00 0.159E+01 0.777E+00   -.830E+00 -.160E+01 -.830E+00   0.354E-01 0.185E-01 0.354E-01
   0.761E+00 0.255E+00 0.984E+00   -.838E+00 -.286E+00 -.103E+01   0.597E-01 0.359E-01 0.331E-01
   0.652E+00 0.271E+00 0.652E+00   -.726E+00 -.290E+00 -.726E+00   0.642E-01 0.839E-02 0.642E-01
   0.615E+00 -.225E+00 0.614E+00   -.630E+00 0.246E+00 -.630E+00   0.163E-01 -.350E-01 0.163E-01
   0.138E+01 -.157E+01 0.643E+00   -.145E+01 0.155E+01 -.679E+00   0.747E-01 0.209E-01 0.391E-01
   0.643E+00 -.157E+01 0.138E+01   -.679E+00 0.155E+01 -.145E+01   0.391E-01 0.209E-01 0.747E-01
   0.118E+01 0.199E+01 0.104E+01   -.134E+01 -.193E+01 -.101E+01   0.489E-01 -.676E-01 -.534E-01
   0.143E+01 0.758E+00 0.113E+01   -.164E+01 -.938E+00 -.133E+01   0.126E+00 0.179E+00 0.192E+00
   -.341E+01 0.155E+01 -.275E+00   0.349E+01 -.143E+01 0.218E+00   0.412E-02 -.140E+00 0.110E+00
   -.476E-03 -.933E+00 -.456E-03   0.460E-03 0.932E+00 0.454E-03   -.102E-04 0.164E-01 -.300E-05
   -.183E+01 0.171E+01 -.148E+01   0.192E+01 -.175E+01 0.139E+01   -.703E-01 0.412E-01 0.817E-01
   0.904E+00 0.836E+00 0.686E+00   -.904E+00 -.822E+00 -.763E+00   0.756E-02 -.347E-01 0.641E-01
   -.384E+01 0.461E+00 0.233E+00   0.411E+01 -.600E+00 -.453E+00   -.127E+00 0.151E+00 0.250E+00
   -.284E+01 -.186E+01 -.883E+00   0.298E+01 0.173E+01 0.778E+00   -.564E-01 0.140E+00 0.131E+00
   -.118E+01 0.199E+01 -.105E+01   0.134E+01 -.193E+01 0.101E+01   -.489E-01 -.676E-01 0.534E-01
   -.160E+01 -.134E+01 -.137E+01   0.167E+01 0.135E+01 0.137E+01   -.698E-01 -.444E-02 0.129E-01
   0.759E+00 0.197E+01 -.759E+00   -.669E+00 -.189E+01 0.669E+00   -.504E-01 -.396E-01 0.504E-01
   -.760E+00 0.256E+00 -.985E+00   0.837E+00 -.286E+00 0.103E+01   -.597E-01 0.358E-01 -.331E-01
   0.113E+01 0.277E+00 0.831E+00   -.112E+01 -.257E+00 -.866E+00   -.116E-01 -.290E-01 0.377E-01
   -.831E+00 0.277E+00 -.113E+01   0.866E+00 -.257E+00 0.112E+01   -.377E-01 -.290E-01 0.116E-01
   0.678E+00 -.325E+01 -.678E+00   -.557E+00 0.319E+01 0.557E+00   -.840E-01 0.378E-01 0.840E-01
   0.704E+00 -.181E+01 -.704E+00   -.697E+00 0.182E+01 0.697E+00   -.207E-02 -.239E-01 0.209E-02
   0.484E-03 0.307E+00 -.416E-03   -.452E-03 -.393E+00 0.452E-03   0.929E-05 0.734E-01 0.408E-05
   0.284E+01 0.784E+00 -.769E+00   -.289E+01 -.898E+00 0.729E+00   0.694E-01 0.835E-01 0.587E-01
   0.184E+01 0.173E+00 0.184E+01   -.208E+01 -.378E+00 -.208E+01   0.198E+00 0.171E+00 0.198E+00
   -.768E+00 0.784E+00 0.284E+01   0.728E+00 -.898E+00 -.288E+01   0.588E-01 0.835E-01 0.693E-01
   0.915E+00 -.228E+01 0.916E+00   -.105E+01 0.249E+01 -.105E+01   0.164E+00 -.163E+00 0.164E+00
   0.520E+00 -.218E+01 0.520E+00   -.593E+00 0.220E+01 -.592E+00   0.630E-01 -.227E-01 0.630E-01
   0.230E+01 -.225E+01 -.960E+00   -.247E+01 0.234E+01 0.826E+00   0.177E+00 -.308E-01 0.145E+00
   -.960E+00 -.225E+01 0.230E+01   0.827E+00 0.234E+01 -.247E+01   0.145E+00 -.308E-01 0.177E+00
   0.115E+01 -.254E+01 0.242E+01   -.125E+01 0.250E+01 -.251E+01   0.104E+00 0.468E-01 0.845E-01
   -.356E+00 -.152E+01 0.333E+01   0.626E-01 0.134E+01 -.373E+01   0.277E+00 0.767E-02 0.342E+00
   -.282E+01 -.310E+01 0.242E+00   0.285E+01 0.299E+01 -.404E+00   -.205E+00 0.123E+00 0.156E+00
   -.656E-03 -.302E+01 -.132E-02   0.630E-03 0.306E+01 0.139E-02   0.204E-04 -.531E-01 0.380E-04
   -.147E+02 -.104E+02 -.594E+01   0.156E+02 0.101E+02 0.564E+01   -.643E+00 0.179E+00 0.321E+00
   -.170E+01 -.290E+01 0.105E+01   0.178E+01 0.286E+01 -.112E+01   -.648E-01 0.547E-01 0.587E-01
   -.853E+01 -.927E+01 0.333E+01   0.856E+01 0.962E+01 -.443E+01   -.682E-01 -.118E+00 0.103E+01
   -.158E+01 -.928E+00 -.436E+01   0.167E+01 0.861E+00 0.429E+01   -.775E-01 0.672E-01 0.338E-01
   -.115E+01 -.254E+01 -.242E+01   0.125E+01 0.250E+01 0.252E+01   -.104E+00 0.468E-01 -.845E-01
   -.460E+00 -.515E+01 -.106E+02   0.619E+00 0.529E+01 0.106E+02   -.222E+00 -.906E-01 -.136E+00
   0.131E+01 -.235E+01 -.131E+01   -.129E+01 0.232E+01 0.129E+01   -.412E-01 0.258E-01 0.412E-01
   0.769E+00 0.784E+00 -.284E+01   -.729E+00 -.898E+00 0.289E+01   -.587E-01 0.835E-01 -.693E-01
   0.377E+01 -.384E+01 -.154E+01   -.381E+01 0.381E+01 0.146E+01   0.292E-01 0.978E-02 0.375E-01
   0.154E+01 -.384E+01 -.377E+01   -.146E+01 0.381E+01 0.381E+01   -.375E-01 0.978E-02 -.292E-01
   0.113E+02 0.184E+01 -.113E+02   -.115E+02 -.223E+01 0.115E+02   0.819E-01 -.219E+00 -.819E-01
   0.240E+01 -.188E+01 -.240E+01   -.237E+01 0.172E+01 0.237E+01   -.808E-01 -.211E-01 0.808E-01
   0.577E-03 0.238E+01 -.529E-03   -.518E-03 -.223E+01 0.514E-03   -.504E-05 0.146E-01 0.497E-05
   0.155E+01 0.214E+01 -.911E+00   -.152E+01 -.203E+01 0.829E+00   -.264E-01 -.316E-01 0.426E-01
   0.473E+00 0.223E+01 0.473E+00   -.602E+00 -.230E+01 -.602E+00   0.154E+00 -.218E-02 0.154E+00
   -.911E+00 0.214E+01 0.155E+01   0.828E+00 -.203E+01 -.152E+01   0.426E-01 -.316E-01 -.264E-01
   0.268E+01 -.141E+01 0.268E+01   -.324E+01 0.181E+01 -.324E+01   0.499E+00 -.201E+00 0.499E+00
   0.861E+00 -.158E+01 0.860E+00   -.915E+00 0.163E+01 -.915E+00   0.669E-01 -.684E-01 0.669E-01
   0.139E+01 0.965E+00 0.704E+00   -.144E+01 -.894E+00 -.774E+00   0.440E-01 -.689E-01 0.730E-01
   0.704E+00 0.965E+00 0.139E+01   -.774E+00 -.894E+00 -.144E+01   0.730E-01 -.689E-01 0.441E-01
   -.173E+01 0.764E+00 0.272E+01   0.172E+01 -.754E+00 -.274E+01   0.195E-01 -.306E-01 0.427E-01
   -.182E+01 0.202E+01 0.384E+00   0.188E+01 -.194E+01 -.427E+00   -.558E-01 -.835E-01 0.369E-01
   -.652E+01 0.865E+00 -.582E+01   0.676E+01 -.714E+00 0.561E+01   -.222E+00 -.222E+00 0.584E-01
   -.808E-03 0.354E+01 -.102E-02   0.820E-03 -.354E+01 0.996E-03   -.148E-04 -.306E-01 -.360E-05
[...]
   0.164E+02 0.553E+01 0.251E+01   -.172E+02 -.482E+01 -.208E+01   0.496E+00 -.565E+00 -.483E+00
   0.228E+01 0.250E+01 -.352E+00   -.223E+01 -.243E+01 0.432E+00   -.352E-01 -.214E-01 -.890E-01
   0.218E+01 0.100E+02 0.796E+01   -.194E+01 -.102E+02 -.775E+01   0.450E+00 -.122E+00 -.403E+00
   0.698E+00 0.395E+01 0.169E+01   -.556E+00 -.385E+01 -.156E+01   0.365E-01 -.164E+00 -.180E+00
   0.330E+00 0.713E+00 -.171E+01   -.264E+00 -.479E+00 0.195E+01   0.157E+00 -.265E+00 -.194E+00
   -.291E+01 0.466E+01 -.291E+01   0.384E+01 -.462E+01 0.384E+01   -.858E+00 -.382E+00 -.858E+00
   0.182E+01 0.202E+01 -.384E+00   -.188E+01 -.194E+01 0.427E+00   0.558E-01 -.835E-01 -.369E-01
   -.473E+00 0.223E+01 -.473E+00   0.602E+00 -.230E+01 0.602E+00   -.154E+00 -.218E-02 -.154E+00
   -.384E+00 0.202E+01 0.182E+01   0.427E+00 -.194E+01 -.188E+01   -.368E-01 -.835E-01 0.558E-01
   -.860E+00 -.158E+01 -.861E+00   0.915E+00 0.163E+01 0.916E+00   -.669E-01 -.684E-01 -.669E-01
   -.268E+01 -.141E+01 -.268E+01   0.324E+01 0.181E+01 0.324E+01   -.498E+00 -.201E+00 -.499E+00
   -.704E+00 0.965E+00 -.139E+01   0.774E+00 -.894E+00 0.144E+01   -.730E-01 -.689E-01 -.440E-01
   -.139E+01 0.965E+00 -.704E+00   0.144E+01 -.894E+00 0.774E+00   -.440E-01 -.689E-01 -.730E-01
   -.653E-02 -.495E+02 0.543E-02   0.629E-02 0.546E+02 -.617E-02   0.100E-03 -.171E+01 0.109E-03
   0.326E-03 0.307E+01 -.136E-04   0.368E-12 0.115E-11 -.122E-11   -.292E-03 -.125E+01 0.252E-04

 POSITION                                       TOTAL-FORCE (eV/Angst)
      0.00000      0.00270     10.63500        -0.000017      0.045344      0.000066
     10.63116      1.77538      1.77137        -0.007277      0.007956     -0.014061
      1.76850      0.00221      1.76850        -0.015919      0.018326     -0.015806
      1.77137      1.77538     10.63116        -0.014111      0.008012     -0.007258
      2.65207      0.89030      2.65207        -0.006410     -0.011515     -0.006337
      0.88422      0.88994      0.88421         0.001415     -0.017014      0.001468
      0.87971      2.66189      2.65525         0.001656     -0.000870      0.005005
      2.65525      2.66189      0.87970         0.004972     -0.000843      0.001676
      3.54384      0.00442     10.63126        -0.106717     -0.007607     -0.022894
      3.53958      1.76984      1.76090        -0.071325      0.008957     -0.004144
      5.31471      0.01444      1.76015         0.077765     -0.019281      0.060169
      5.31750      1.77473     10.63500        -0.000027      0.016109     -0.000006
      6.20292      0.89077      2.65632         0.012041      0.003796     -0.000695
      4.42967      0.89184      0.87737         0.010014     -0.022639     -0.009071
      4.42506      2.64730      2.64317         0.131937      0.019727      0.042170
      6.20272      2.65702      0.88288         0.071704      0.018559      0.033761
      7.09116      0.00442      0.00374         0.106648     -0.007581      0.022847
      7.08946      1.77620      1.77374        -0.011614      0.006901      0.016083
      8.86028      0.00335      1.77472         0.037214      0.041067     -0.037154
      8.86363      1.77538      0.00384         0.014118      0.007984      0.007326
      9.74544      0.88980      2.65874         0.000514     -0.011145      0.005134
      7.97626      0.88980      0.88956        -0.005136     -0.011131     -0.000442
      7.97345      2.66330      2.66155         0.033978     -0.017104     -0.033953
      9.74699      2.66300      0.88801         0.005234     -0.011536     -0.005164
      0.00000      3.54774     10.63500         0.000042     -0.007023      0.000040
     10.62632      5.32098      1.76948         0.023192     -0.024160      0.021746
      1.76355      3.54578      1.76355        -0.024740     -0.024065     -0.024739
      1.76948      5.32098     10.62632         0.021786     -0.024133      0.023163
      2.64473      4.42988      2.64473         0.032184      0.041892      0.032150
      0.88157      4.43502      0.88157        -0.007221     -0.004313     -0.007166
      0.87272      6.20778      2.64847         0.016143      0.054156      0.019107
      2.64846      6.20778      0.87271         0.019090      0.054110      0.016155
      3.54322      3.54792     10.62895         0.008264      0.003595     -0.006025
      3.52535      5.32034      1.75254        -0.000178     -0.164873     -0.039117
      5.31500      3.53402      1.75877        -0.183870      0.023846      0.003490
      5.31750      5.32138     10.63500        -0.000004     -0.018302      0.000102
      6.19551      4.42584      2.65541         0.264145     -0.071650      0.030520
      4.42740      4.43238      0.87946         0.009170      0.012453     -0.003568
      4.41861      6.19759      2.63919        -0.045658      0.220285     -0.017040
      6.20209      6.20710      0.89073         0.011018      0.003395     -0.027555
      7.09178      3.54792      0.00605        -0.008258      0.003447      0.006092
      7.08310      5.32342      1.78282        -0.075556      0.044409     -0.117572
      8.85887      3.54963      1.77613        -0.014858      0.001706      0.014906
      8.86552      5.32098      0.00868        -0.021704     -0.024128     -0.023152
      9.74019      4.43733      2.66126        -0.005618     -0.027613     -0.041447
      7.97374      4.43733      0.89481         0.041443     -0.027611      0.005681
      7.95263      6.21736      2.68237        -0.161342     -0.620336      0.161362
      9.74586      6.20891      0.88914        -0.053609     -0.192731      0.053668
      0.00000      7.09395     10.63500         0.000054      0.171167     -0.000010
     10.62998      8.86586      1.77163         0.005635      0.073048     -0.038870
      1.75725      7.09547      1.75725         0.032536     -0.064731      0.032574
      1.77163      8.86586     10.62998        -0.039007      0.073077      0.005707
      2.63464      7.98160      2.63464        -0.028788      0.191607     -0.028773
      0.87943      7.98116      0.87943         0.016682     -0.021502      0.016648
      0.87969      9.75351      2.65557        -0.006608     -0.001793      0.006768
      2.65557      9.75351      0.87969         0.006785     -0.001874     -0.006554
      3.54402      7.09353     10.62899         0.013919     -0.022208      0.019353
      3.54056      8.87039      1.76220         0.000031     -0.012366     -0.006570
      5.31612      7.09279      1.77279         0.007262     -0.083035     -0.148377
      5.31750      8.86698     10.63500        -0.000004     -0.029943     -0.000027
[...]
      5.31887      7.09279      8.86221        -0.007172     -0.082971      0.148548
      5.33014      8.89255      7.10934        -0.336081      0.119644     -0.074531
      6.20529      7.97919      9.75150         0.016529      0.047488     -0.012763
      4.43332      7.97708      7.96660         0.717979     -0.315039     -0.217590
      4.43159      9.75539      9.75058         0.182162     -0.069181     -0.059704
      6.20428      9.77478      7.99793         0.227924     -0.047517      0.029164
      7.11853      7.11525      7.11854         0.032715     -0.364529      0.032458
      7.09444      8.87039      8.87280        -0.000188     -0.012409      0.006589
      8.87775      7.09547      8.87775        -0.032523     -0.064692     -0.032505
      8.87280      8.87039      7.09444         0.006664     -0.012388     -0.000067
      9.75557      7.98116      9.75557        -0.016623     -0.021495     -0.016643
      8.00036      7.98160      8.00036         0.028887      0.191639      0.028801
      7.97943      9.75351      9.75531        -0.006745     -0.001791      0.006635
      9.75531      9.75351      7.97943         0.006601     -0.001872     -0.006818
      5.31749      6.46769      5.31751        -0.000124      1.483501     -0.000541
    total drift:                                0.000032      0.017558      0.000094

  FREE ENERGIE OF THE ION-ELECTRON SYSTEM (eV)
  free  energy   TOTEN  =     -2256.24524532 eV

  energy  without entropy=    -2256.24524532  energy(sigma->0) =    -2256.24524532

 writing wavefunctions